\ File written by HiGHS .lp file handler
min
 obj: +1 c14 -0.002 c16 
st
 r0: +1 c0 = +11.2475970508057
 r1: +1 c1 = +190.724397845545
 r2: +1 c2 = +3.2475970508057
 r3: +1 c3 = +3.2475970508057
 r4: +1 c4 = +0
 r5: +1 c5 = +3.2475970508057
 r6: +1 c6 = +0
 r7: +1 c7 = +0
 r8: +1 c8 = +0
 r9: +1 c9 = +0
 r10: +1 c10 = +0
 r11: +1 c11 = +0
 r12: +1 c12 = +0
 r13: +1 c13 -1 c14 = +0
 r14: +1 c15 -1 c16 = +0
 r15: +1 c17 -1 c18 = -11.7227625
 r16: +1 c19 -1 c20 = -15.4246875
 r17: +1 c21 -1 c22 = -32.7003375
 r18: +1 c23 -1 c24 = -32.7003375
 r19: +1 c25 -1 c26 = -19.1266125
 r20: +1 c27 -1 c28 = -20.977575
 r21: +1 c29 -1 c30 = -32.7003375
 r22: +1 c31 -1 c32 = -16.041675
 r23: +1 c33 -1 c34 = -20.977575
 r24: +1 c35 -1 c36 = -1.233975
 r25: +1 c37 -1 c38 = -9.2548125
 r26: +1 c39 -1 c40 = -16.6586625
 r27: +1 c41 -1 c42 = -37.01925
 r28: +1 c43 -1 c44 = -2.46795
 r29: +1 c45 -1 c46 = -9.8718
 r30: +1 c47 -1 c48 = -24.6795
 r31: +1 c49 -1 c50 = -19.7436
 r32: +1 c51 -1 c52 = -24.6795
 r33: +1 c53 -1 c54 = -32.7003375
 r34: +1 c55 -1 c56 = -24.6795
 r35: +1 c57 -1 c58 = -22.8285375
 r36: +1 c59 -1 c60 = -24.6795
 r37: +1 c61 -1 c62 = -29.6154
 r38: +1 c63 -1 c64 = -25.913475
 r39: +1 c65 -1 c66 = -19.7436
 r40: +1 c67 -1 c68 = -38.253225
 r41: +1 c69 -1 c70 = -11.7227625
 r42: +1 c71 -1 c72 = -23.445525
 r43: +1 c16 -1 c73 = -25.2964875
 r44: -1 c33 +1 c36 = +0
 r45: -1 c35 +1 c38 = +0
 r46: -1 c41 +1 c44 = +0
 r47: +1 c15 -1 c16 = +0
 r48: +1 c1 -1 c18 <= +0
 r49: +1 c17 -1 c20 <= +0
 r50: +1 c19 -1 c22 <= +0
 r51: +1 c21 -1 c24 <= +0
 r52: +1 c23 -1 c26 <= +0
 r53: +1 c25 -1 c28 <= +0
 r54: +1 c27 -1 c30 <= +0
 r55: +1 c29 -1 c32 <= +0
 r56: +1 c31 -1 c34 <= +0
 r57: +1 c37 -1 c40 <= +0
 r58: +1 c39 -1 c42 <= +0
 r59: +1 c43 -1 c46 <= +0
 r60: +1 c45 -1 c48 <= +0
 r61: +1 c47 -1 c50 <= +0
 r62: +1 c49 -1 c52 <= +0
 r63: +1 c51 -1 c54 <= +0
 r64: +1 c53 -1 c56 <= +0
 r65: +1 c55 -1 c58 <= +0
 r66: +1 c57 -1 c60 <= +0
 r67: +1 c59 -1 c62 <= +0
 r68: +1 c61 -1 c64 <= +0
 r69: +1 c63 -1 c66 <= +0
 r70: +1 c65 -1 c68 <= +0
 r71: +1 c67 -1 c70 <= +0
 r72: +1 c69 -1 c72 <= +0
 r73: +1 c71 -1 c73 <= +0
 r74: +1 c1 >= +70
 r75: +1 c17 >= +70
 r76: +1 c19 >= +70
 r77: +1 c21 >= +70
 r78: +1 c23 >= +70
 r79: +1 c25 >= +70
 r80: +1 c27 >= +70
 r81: +1 c29 >= +70
 r82: +1 c31 >= +70
 r83: +1 c33 >= +70
 r84: +1 c35 >= +70
 r85: +1 c37 >= +70
 r86: +1 c39 >= +70
 r87: +1 c41 >= +70
 r88: +1 c43 >= +70
 r89: +1 c45 >= +70
 r90: +1 c47 >= +70
 r91: +1 c49 >= +70
 r92: +1 c51 >= +70
 r93: +1 c53 >= +70
 r94: +1 c55 >= +70
 r95: +1 c57 >= +70
 r96: +1 c59 >= +70
 r97: +1 c61 >= +70
 r98: +1 c63 >= +70
 r99: +1 c65 >= +70
 r100: +1 c67 >= +70
 r101: +1 c69 >= +70
 r102: +1 c71 >= +70
 r103: +1 c16 >= +70
 r104: +1 c18 <= +350
 r105: +1 c20 <= +350
 r106: +1 c22 <= +350
 r107: +1 c24 <= +350
 r108: +1 c26 <= +350
 r109: +1 c28 <= +350
 r110: +1 c30 <= +350
 r111: +1 c32 <= +350
 r112: +1 c34 <= +350
 r113: +1 c36 <= +350
 r114: +1 c38 <= +350
 r115: +1 c40 <= +350
 r116: +1 c42 <= +350
 r117: +1 c44 <= +350
 r118: +1 c46 <= +350
 r119: +1 c48 <= +350
 r120: +1 c50 <= +350
 r121: +1 c52 <= +350
 r122: +1 c54 <= +350
 r123: +1 c56 <= +350
 r124: +1 c58 <= +350
 r125: +1 c60 <= +350
 r126: +1 c62 <= +350
 r127: +1 c64 <= +350
 r128: +1 c66 <= +350
 r129: +1 c68 <= +350
 r130: +1 c70 <= +350
 r131: +1 c72 <= +350
 r132: +1 c73 <= +350
 r133: +1 c15 <= +350
 r134: +1 c74 -2.5 c75 <= +0
 r135: +1 c76 -2.5 c77 <= +0
 r136: +1 c78 -2.5 c79 <= +0
 r137: +1 c80 -2.5 c81 <= +0
 r138: +1 c82 -2.5 c83 <= +0
 r139: +1 c84 -2.5 c85 <= +0
 r140: +1 c86 -2.5 c87 <= +0
 r141: +1 c88 -2.5 c89 <= +0
 r142: +1 c90 -2.5 c91 <= +0
 r143: +1 c92 -2.5 c93 <= +0
 r144: +1 c94 -2.5 c95 <= +0
 r145: +1 c96 -2.5 c97 <= +0
 r146: +1 c98 -2.5 c99 <= +0
 r147: +1 c100 -2.5 c101 <= +0
 r148: +1 c102 -2.5 c103 <= +0
 r149: +1 c104 -2.5 c105 <= +0
 r150: +1 c106 -2.5 c107 <= +0
 r151: +1 c108 -2.5 c109 <= +0
 r152: +1 c110 -2.5 c111 <= +0
 r153: +1 c112 -2.5 c113 <= +0
 r154: +1 c114 -2.5 c115 <= +0
 r155: +1 c116 -2.5 c117 <= +0
 r156: +1 c118 -2.5 c119 <= +0
 r157: +1 c120 -2.5 c121 <= +0
 r158: +1 c122 -2.5 c123 <= +0
 r159: +1 c124 -2.5 c125 <= +0
 r160: -1 c74 +0.25 c75 <= +0
 r161: -1 c76 +0.25 c77 <= +0
 r162: -1 c78 +0.25 c79 <= +0
 r163: -1 c80 +0.25 c81 <= +0
 r164: -1 c82 +0.25 c83 <= +0
 r165: -1 c84 +0.25 c85 <= +0
 r166: -1 c86 +0.25 c87 <= +0
 r167: -1 c88 +0.25 c89 <= +0
 r168: -1 c90 +0.25 c91 <= +0
 r169: -1 c92 +0.25 c93 <= +0
 r170: -1 c94 +0.25 c95 <= +0
 r171: -1 c96 +0.25 c97 <= +0
 r172: -1 c98 +0.25 c99 <= +0
 r173: -1 c100 +0.25 c101 <= +0
 r174: -1 c102 +0.25 c103 <= +0
 r175: -1 c104 +0.25 c105 <= +0
 r176: -1 c106 +0.25 c107 <= +0
 r177: -1 c108 +0.25 c109 <= +0
 r178: -1 c110 +0.25 c111 <= +0
 r179: -1 c112 +0.25 c113 <= +0
 r180: -1 c114 +0.25 c115 <= +0
 r181: -1 c116 +0.25 c117 <= +0
 r182: -1 c118 +0.25 c119 <= +0
 r183: -1 c120 +0.25 c121 <= +0
 r184: -1 c122 +0.25 c123 <= +0
 r185: -1 c124 +0.25 c125 <= +0
 r186: +1 c126 -1 c127 = +0.2375
 r187: +1 c128 -1 c129 = +0.3125
 r188: +1 c130 -1 c131 = +0.6625
 r189: +1 c132 -1 c133 = +0.6625
 r190: +1 c134 -1 c135 = +0.3875
 r191: +1 c136 -1 c137 = +0.425
 r192: +1 c138 -1 c139 = +0.6625
 r193: +1 c140 -1 c141 = +0.325
 r194: +1 c142 -1 c143 = +0.425
 r195: +1 c144 -1 c145 = +0.025
 r196: +1 c146 -1 c147 = +0.1875
 r197: +1 c148 -1 c149 = +0.3375
 r198: +1 c150 -1 c151 = +0.75
 r199: +1 c152 -1 c153 = +0.05
 r200: +1 c154 -1 c155 = +0.2
 r201: +1 c156 -1 c157 = +0.5
 r202: +1 c158 -1 c159 = +0.4
 r203: +1 c160 -1 c161 = +0.5
 r204: +1 c162 -1 c163 = +0.6625
 r205: +1 c164 -1 c165 = +0.5
 r206: +1 c166 -1 c167 = +0.4625
 r207: +1 c168 -1 c169 = +0.5
 r208: +1 c170 -1 c171 = +0.6
 r209: +1 c172 -1 c173 = +0.525
 r210: +1 c174 -1 c175 = +0.4
 r211: +1 c176 -1 c177 = +0.775
 r212: +1 c178 -1 c179 = +0.2375
 r213: +1 c180 -1 c181 = +0.475
 r214: +1 c14 -1 c182 = +0.5125
 r215: -1 c142 +1 c145 -1 c183 -1 c184 -0.25 c185 = +0.5
 r216: -1 c144 +1 c147 -1 c186 -1 c187 -0.25 c188 = +0.5
 r217: -1 c150 +1 c153 -1 c189 -1 c190 -0.25 c191 = +0.5
 r218: -1 c11 -1 c12 +1 c13 -1 c14 = +0.5
 r219: -1 c0 -1 c74 -0.1 c75 +1 c127 -1 c193 -1 c194 -0.25 c195 = +0
 r220: -1 c76 -1 c126 +1 c129 -1 c196 -1 c197 -0.25 c198 = +0
 r221: -1 c78 -0.133333333333333 c79 -1 c128 +1 c131 -1 c199 -1 c200 -0.25 c201 = +0
 r222: -1 c80 -0.1 c81 -1 c130 +1 c133 -1 c202 -1 c203 -0.25 c204 = +0
 r223: -1 c82 -0.0833333333333333 c83 -1 c132 +1 c135 -1 c205 -1 c206 -0.25 c207 = +0
 r224: -1 c84 -0.1 c85 -1 c134 +1 c137 -1 c208 -1 c209 -0.25 c210 = +0
 r225: -1 c86 -0.15 c87 -1 c136 +1 c139 -1 c211 -1 c212 -0.25 c213 = +0
 r226: -1 c88 -1 c138 +1 c141 -1 c214 -1 c215 -0.25 c216 = +0
 r227: -1 c90 -0.116666666666667 c91 -1 c140 +1 c143 -1 c217 -1 c218 -0.25 c219 = +0
 r228: -1 c92 -1 c146 +1 c149 -1 c220 -1 c221 -0.25 c222 = +0
 r229: -1 c94 -0.0333333333333333 c95 -1 c148 +1 c151 -1 c223 -1 c224 -0.25 c225 = +0
 r230: -1 c96 -0.15 c97 -1 c152 +1 c155 -1 c226 -1 c227 -0.25 c228 = +0
 r231: -1 c98 -0.05 c99 -1 c154 +1 c157 -1 c229 -1 c230 -0.25 c231 = +0
 r232: -1 c100 -0.0166666666666667 c101 -1 c156 +1 c159 -1 c232 -1 c233 -0.25 c234 = +0
 r233: -1 c102 -0.05 c103 -1 c158 +1 c161 -1 c235 -1 c236 -0.25 c237 = +0
 r234: -1 c104 -0.116666666666667 c105 -1 c160 +1 c163 -1 c238 -1 c239 -0.25 c240 = +0
 r235: -1 c106 -0.0833333333333333 c107 -1 c162 +1 c165 -1 c241 -1 c242 -0.25 c243 = +0
 r236: -1 c108 -0.133333333333333 c109 -1 c164 +1 c167 -1 c244 -1 c245 -0.25 c246 = +0
 r237: -1 c110 -0.0833333333333333 c111 -1 c166 +1 c169 -1 c247 -1 c248 -0.25 c249 = +0
 r238: -1 c112 -0.133333333333333 c113 -1 c168 +1 c171 -1 c250 -1 c251 -0.25 c252 = +0
 r239: -1 c114 -0.0666666666666667 c115 -1 c170 +1 c173 -1 c253 -1 c254 -0.25 c255 = +0
 r240: -1 c116 -0.116666666666667 c117 -1 c172 +1 c175 -1 c256 -1 c257 -0.25 c258 = +0
 r241: -1 c118 -0.0166666666666667 c119 -1 c174 +1 c177 -1 c259 -1 c260 -0.25 c261 = +0
 r242: -1 c120 -0.15 c121 -1 c176 +1 c179 -1 c262 -1 c263 -0.25 c264 = +0
 r243: -1 c122 -0.0833333333333333 c123 -1 c178 +1 c181 -1 c265 -1 c266 -0.25 c267 = +0
 r244: -1 c124 -0.0666666666666667 c125 -1 c180 +1 c182 -1 c268 -1 c269 -0.25 c270 = +0
 r245lo: +1 c142 >= +8
 r245up: +1 c142 <= +20000008
 r246lo: +1 c144 >= +8
 r246up: +1 c144 <= +20000008
 r247lo: +1 c150 >= +8
 r247up: +1 c150 <= +20000008
 r248lo: +1 c14 >= +8
 r248up: +1 c14 <= +20000008
 r249: -1 c195 +1 c271 +1 c272 +1 c273 +1 c274 +1 c275 <= +0
 r250: -1 c198 +1 c276 +1 c277 +1 c278 +1 c279 +1 c280 <= +0
 r251: -1 c201 +1 c281 +1 c282 +1 c283 +1 c284 +1 c285 <= +0
 r252: -1 c204 +1 c286 +1 c287 +1 c288 +1 c289 +1 c290 <= +0
 r253: -1 c207 +1 c291 +1 c292 +1 c293 +1 c294 +1 c295 <= +0
 r254: -1 c210 +1 c296 +1 c297 +1 c298 +1 c299 +1 c300 <= +0
 r255: -1 c213 +1 c301 +1 c302 +1 c303 +1 c304 +1 c305 <= +0
 r256: -1 c216 +1 c306 +1 c307 +1 c308 +1 c309 +1 c310 <= +0
 r257: -1 c219 +1 c311 +1 c312 +1 c313 +1 c314 +1 c315 <= +0
 r258: -1 c185 +1 c316 +1 c317 +1 c318 +1 c319 +1 c320 <= +0
 r259: -1 c188 +1 c321 +1 c322 +1 c323 +1 c324 +1 c325 <= +0
 r260: -1 c222 +1 c326 +1 c327 +1 c328 +1 c329 +1 c330 <= +0
 r261: -1 c225 +1 c331 +1 c332 +1 c333 +1 c334 +1 c335 <= +0
 r262: -1 c191 +1 c336 +1 c337 +1 c338 +1 c339 +1 c340 <= +0
 r263: -1 c228 +1 c341 +1 c342 +1 c343 +1 c344 +1 c345 <= +0
 r264: -1 c231 +1 c346 +1 c347 +1 c348 +1 c349 +1 c350 <= +0
 r265: -1 c234 +1 c351 +1 c352 +1 c353 +1 c354 +1 c355 <= +0
 r266: -1 c237 +1 c356 +1 c357 +1 c358 +1 c359 +1 c360 <= +0
 r267: -1 c240 +1 c361 +1 c362 +1 c363 +1 c364 +1 c365 <= +0
 r268: -1 c243 +1 c366 +1 c367 +1 c368 +1 c369 +1 c370 <= +0
 r269: -1 c246 +1 c371 +1 c372 +1 c373 +1 c374 +1 c375 <= +0
 r270: -1 c249 +1 c376 +1 c377 +1 c378 +1 c379 +1 c380 <= +0
 r271: -1 c252 +1 c381 +1 c382 +1 c383 +1 c384 +1 c385 <= +0
 r272: -1 c255 +1 c386 +1 c387 +1 c388 +1 c389 +1 c390 <= +0
 r273: -1 c258 +1 c391 +1 c392 +1 c393 +1 c394 +1 c395 <= +0
 r274: -1 c261 +1 c396 +1 c397 +1 c398 +1 c399 +1 c400 <= +0
 r275: -1 c264 +1 c401 +1 c402 +1 c403 +1 c404 +1 c405 <= +0
 r276: -1 c267 +1 c406 +1 c407 +1 c408 +1 c409 +1 c410 <= +0
 r277: -1 c270 +1 c411 +1 c412 +1 c413 +1 c414 +1 c415 <= +0
 r278: +1 c6 +1 c7 +1 c8 +1 c9 +1 c10 -1 c192 <= +0
 r279: +1 c75 -1 c195 <= +0
 r280: +1 c77 -1 c198 <= +0
 r281: +1 c79 -1 c201 <= +0
 r282: +1 c81 -1 c204 <= +0
 r283: +1 c83 -1 c207 <= +0
 r284: +1 c85 -1 c210 <= +0
 r285: +1 c87 -1 c213 <= +0
 r286: +1 c89 -1 c216 <= +0
 r287: +1 c91 -1 c219 <= +0
 r288: +1 c93 -1 c222 <= +0
 r289: +1 c95 -1 c225 <= +0
 r290: +1 c97 -1 c228 <= +0
 r291: +1 c99 -1 c231 <= +0
 r292: +1 c101 -1 c234 <= +0
 r293: +1 c103 -1 c237 <= +0
 r294: +1 c105 -1 c240 <= +0
 r295: +1 c107 -1 c243 <= +0
 r296: +1 c109 -1 c246 <= +0
 r297: +1 c111 -1 c249 <= +0
 r298: +1 c113 -1 c252 <= +0
 r299: +1 c115 -1 c255 <= +0
 r300: +1 c117 -1 c258 <= +0
 r301: +1 c119 -1 c261 <= +0
 r302: +1 c121 -1 c264 <= +0
 r303: +1 c123 -1 c267 <= +0
 r304: +1 c125 -1 c270 <= +0
 r305: +1 c1 -140 c417 -280 c418 -350 c419 = +0
 r306: +1 c17 -140 c421 -280 c422 -350 c423 = +0
 r307: +1 c19 -140 c425 -280 c426 -350 c427 = +0
 r308: +1 c21 -140 c429 -280 c430 -350 c431 = +0
 r309: +1 c23 -140 c433 -280 c434 -350 c435 = +0
 r310: +1 c25 -140 c437 -280 c438 -350 c439 = +0
 r311: +1 c27 -140 c441 -280 c442 -350 c443 = +0
 r312: +1 c29 -140 c445 -280 c446 -350 c447 = +0
 r313: +1 c31 -140 c449 -280 c450 -350 c451 = +0
 r314: +1 c37 -140 c453 -280 c454 -350 c455 = +0
 r315: +1 c39 -140 c457 -280 c458 -350 c459 = +0
 r316: +1 c43 -140 c461 -280 c462 -350 c463 = +0
 r317: +1 c45 -140 c465 -280 c466 -350 c467 = +0
 r318: +1 c47 -140 c469 -280 c470 -350 c471 = +0
 r319: +1 c49 -140 c473 -280 c474 -350 c475 = +0
 r320: +1 c51 -140 c477 -280 c478 -350 c479 = +0
 r321: +1 c53 -140 c481 -280 c482 -350 c483 = +0
 r322: +1 c55 -140 c485 -280 c486 -350 c487 = +0
 r323: +1 c57 -140 c489 -280 c490 -350 c491 = +0
 r324: +1 c59 -140 c493 -280 c494 -350 c495 = +0
 r325: +1 c61 -140 c497 -280 c498 -350 c499 = +0
 r326: +1 c63 -140 c501 -280 c502 -350 c503 = +0
 r327: +1 c65 -140 c505 -280 c506 -350 c507 = +0
 r328: +1 c67 -140 c509 -280 c510 -350 c511 = +0
 r329: +1 c69 -140 c513 -280 c514 -350 c515 = +0
 r330: +1 c71 -140 c517 -280 c518 -350 c519 = +0
 r331: +1 c18 -140 c521 -280 c522 -350 c523 = +0
 r332: +1 c20 -140 c525 -280 c526 -350 c527 = +0
 r333: +1 c22 -140 c529 -280 c530 -350 c531 = +0
 r334: +1 c24 -140 c533 -280 c534 -350 c535 = +0
 r335: +1 c26 -140 c537 -280 c538 -350 c539 = +0
 r336: +1 c28 -140 c541 -280 c542 -350 c543 = +0
 r337: +1 c30 -140 c545 -280 c546 -350 c547 = +0
 r338: +1 c32 -140 c549 -280 c550 -350 c551 = +0
 r339: +1 c34 -140 c553 -280 c554 -350 c555 = +0
 r340: +1 c40 -140 c557 -280 c558 -350 c559 = +0
 r341: +1 c42 -140 c561 -280 c562 -350 c563 = +0
 r342: +1 c46 -140 c565 -280 c566 -350 c567 = +0
 r343: +1 c48 -140 c569 -280 c570 -350 c571 = +0
 r344: +1 c50 -140 c573 -280 c574 -350 c575 = +0
 r345: +1 c52 -140 c577 -280 c578 -350 c579 = +0
 r346: +1 c54 -140 c581 -280 c582 -350 c583 = +0
 r347: +1 c56 -140 c585 -280 c586 -350 c587 = +0
 r348: +1 c58 -140 c589 -280 c590 -350 c591 = +0
 r349: +1 c60 -140 c593 -280 c594 -350 c595 = +0
 r350: +1 c62 -140 c597 -280 c598 -350 c599 = +0
 r351: +1 c64 -140 c601 -280 c602 -350 c603 = +0
 r352: +1 c66 -140 c605 -280 c606 -350 c607 = +0
 r353: +1 c68 -140 c609 -280 c610 -350 c611 = +0
 r354: +1 c70 -140 c613 -280 c614 -350 c615 = +0
 r355: +1 c72 -140 c617 -280 c618 -350 c619 = +0
 r356: +1 c73 -140 c621 -280 c622 -350 c623 = +0
 r357: +1 c74 +0.55 c417 +1.367 c418 +2.5 c419 -0.55 c521 -1.367 c522 -2.5 c523 = +0
 r358: +1 c76 +0.55 c421 +1.367 c422 +2.5 c423 -0.55 c525 -1.367 c526 -2.5 c527 = +0
 r359: +1 c78 +0.55 c425 +1.367 c426 +2.5 c427 -0.55 c529 -1.367 c530 -2.5 c531 = +0
 r360: +1 c80 +0.55 c429 +1.367 c430 +2.5 c431 -0.55 c533 -1.367 c534 -2.5 c535 = +0
 r361: +1 c82 +0.55 c433 +1.367 c434 +2.5 c435 -0.55 c537 -1.367 c538 -2.5 c539 = +0
 r362: +1 c84 +0.55 c437 +1.367 c438 +2.5 c439 -0.55 c541 -1.367 c542 -2.5 c543 = +0
 r363: +1 c86 +0.55 c441 +1.367 c442 +2.5 c443 -0.55 c545 -1.367 c546 -2.5 c547 = +0
 r364: +1 c88 +0.55 c445 +1.367 c446 +2.5 c447 -0.55 c549 -1.367 c550 -2.5 c551 = +0
 r365: +1 c90 +0.55 c449 +1.367 c450 +2.5 c451 -0.55 c553 -1.367 c554 -2.5 c555 = +0
 r366: +1 c92 +0.55 c453 +1.367 c454 +2.5 c455 -0.55 c557 -1.367 c558 -2.5 c559 = +0
 r367: +1 c94 +0.55 c457 +1.367 c458 +2.5 c459 -0.55 c561 -1.367 c562 -2.5 c563 = +0
 r368: +1 c96 +0.55 c461 +1.367 c462 +2.5 c463 -0.55 c565 -1.367 c566 -2.5 c567 = +0
 r369: +1 c98 +0.55 c465 +1.367 c466 +2.5 c467 -0.55 c569 -1.367 c570 -2.5 c571 = +0
 r370: +1 c100 +0.55 c469 +1.367 c470 +2.5 c471 -0.55 c573 -1.367 c574 -2.5 c575 = +0
 r371: +1 c102 +0.55 c473 +1.367 c474 +2.5 c475 -0.55 c577 -1.367 c578 -2.5 c579 = +0
 r372: +1 c104 +0.55 c477 +1.367 c478 +2.5 c479 -0.55 c581 -1.367 c582 -2.5 c583 = +0
 r373: +1 c106 +0.55 c481 +1.367 c482 +2.5 c483 -0.55 c585 -1.367 c586 -2.5 c587 = +0
 r374: +1 c108 +0.55 c485 +1.367 c486 +2.5 c487 -0.55 c589 -1.367 c590 -2.5 c591 = +0
 r375: +1 c110 +0.55 c489 +1.367 c490 +2.5 c491 -0.55 c593 -1.367 c594 -2.5 c595 = +0
 r376: +1 c112 +0.55 c493 +1.367 c494 +2.5 c495 -0.55 c597 -1.367 c598 -2.5 c599 = +0
 r377: +1 c114 +0.55 c497 +1.367 c498 +2.5 c499 -0.55 c601 -1.367 c602 -2.5 c603 = +0
 r378: +1 c116 +0.55 c501 +1.367 c502 +2.5 c503 -0.55 c605 -1.367 c606 -2.5 c607 = +0
 r379: +1 c118 +0.55 c505 +1.367 c506 +2.5 c507 -0.55 c609 -1.367 c610 -2.5 c611 = +0
 r380: +1 c120 +0.55 c509 +1.367 c510 +2.5 c511 -0.55 c613 -1.367 c614 -2.5 c615 = +0
 r381: +1 c122 +0.55 c513 +1.367 c514 +2.5 c515 -0.55 c617 -1.367 c618 -2.5 c619 = +0
 r382: +1 c124 +0.55 c517 +1.367 c518 +2.5 c519 -0.55 c621 -1.367 c622 -2.5 c623 = +0
 r383: +1 c416 +1 c417 +1 c418 +1 c419 = +1
 r384: +1 c420 +1 c421 +1 c422 +1 c423 = +1
 r385: +1 c424 +1 c425 +1 c426 +1 c427 = +1
 r386: +1 c428 +1 c429 +1 c430 +1 c431 = +1
 r387: +1 c432 +1 c433 +1 c434 +1 c435 = +1
 r388: +1 c436 +1 c437 +1 c438 +1 c439 = +1
 r389: +1 c440 +1 c441 +1 c442 +1 c443 = +1
 r390: +1 c444 +1 c445 +1 c446 +1 c447 = +1
 r391: +1 c448 +1 c449 +1 c450 +1 c451 = +1
 r392: +1 c452 +1 c453 +1 c454 +1 c455 = +1
 r393: +1 c456 +1 c457 +1 c458 +1 c459 = +1
 r394: +1 c460 +1 c461 +1 c462 +1 c463 = +1
 r395: +1 c464 +1 c465 +1 c466 +1 c467 = +1
 r396: +1 c468 +1 c469 +1 c470 +1 c471 = +1
 r397: +1 c472 +1 c473 +1 c474 +1 c475 = +1
 r398: +1 c476 +1 c477 +1 c478 +1 c479 = +1
 r399: +1 c480 +1 c481 +1 c482 +1 c483 = +1
 r400: +1 c484 +1 c485 +1 c486 +1 c487 = +1
 r401: +1 c488 +1 c489 +1 c490 +1 c491 = +1
 r402: +1 c492 +1 c493 +1 c494 +1 c495 = +1
 r403: +1 c496 +1 c497 +1 c498 +1 c499 = +1
 r404: +1 c500 +1 c501 +1 c502 +1 c503 = +1
 r405: +1 c504 +1 c505 +1 c506 +1 c507 = +1
 r406: +1 c508 +1 c509 +1 c510 +1 c511 = +1
 r407: +1 c512 +1 c513 +1 c514 +1 c515 = +1
 r408: +1 c516 +1 c517 +1 c518 +1 c519 = +1
 r409: +1 c520 +1 c521 +1 c522 +1 c523 = +1
 r410: +1 c524 +1 c525 +1 c526 +1 c527 = +1
 r411: +1 c528 +1 c529 +1 c530 +1 c531 = +1
 r412: +1 c532 +1 c533 +1 c534 +1 c535 = +1
 r413: +1 c536 +1 c537 +1 c538 +1 c539 = +1
 r414: +1 c540 +1 c541 +1 c542 +1 c543 = +1
 r415: +1 c544 +1 c545 +1 c546 +1 c547 = +1
 r416: +1 c548 +1 c549 +1 c550 +1 c551 = +1
 r417: +1 c552 +1 c553 +1 c554 +1 c555 = +1
 r418: +1 c556 +1 c557 +1 c558 +1 c559 = +1
 r419: +1 c560 +1 c561 +1 c562 +1 c563 = +1
 r420: +1 c564 +1 c565 +1 c566 +1 c567 = +1
 r421: +1 c568 +1 c569 +1 c570 +1 c571 = +1
 r422: +1 c572 +1 c573 +1 c574 +1 c575 = +1
 r423: +1 c576 +1 c577 +1 c578 +1 c579 = +1
 r424: +1 c580 +1 c581 +1 c582 +1 c583 = +1
 r425: +1 c584 +1 c585 +1 c586 +1 c587 = +1
 r426: +1 c588 +1 c589 +1 c590 +1 c591 = +1
 r427: +1 c592 +1 c593 +1 c594 +1 c595 = +1
 r428: +1 c596 +1 c597 +1 c598 +1 c599 = +1
 r429: +1 c600 +1 c601 +1 c602 +1 c603 = +1
 r430: +1 c604 +1 c605 +1 c606 +1 c607 = +1
 r431: +1 c608 +1 c609 +1 c610 +1 c611 = +1
 r432: +1 c612 +1 c613 +1 c614 +1 c615 = +1
 r433: +1 c616 +1 c617 +1 c618 +1 c619 = +1
 r434: +1 c620 +1 c621 +1 c622 +1 c623 = +1
 r435: +1 c624 +1 c625 +1 c626 = +1
 r436: +1 c627 +1 c628 +1 c629 = +1
 r437: +1 c630 +1 c631 +1 c632 = +1
 r438: +1 c633 +1 c634 +1 c635 = +1
 r439: +1 c636 +1 c637 +1 c638 = +1
 r440: +1 c639 +1 c640 +1 c641 = +1
 r441: +1 c642 +1 c643 +1 c644 = +1
 r442: +1 c645 +1 c646 +1 c647 = +1
 r443: +1 c648 +1 c649 +1 c650 = +1
 r444: +1 c651 +1 c652 +1 c653 = +1
 r445: +1 c654 +1 c655 +1 c656 = +1
 r446: +1 c657 +1 c658 +1 c659 = +1
 r447: +1 c660 +1 c661 +1 c662 = +1
 r448: +1 c663 +1 c664 +1 c665 = +1
 r449: +1 c666 +1 c667 +1 c668 = +1
 r450: +1 c669 +1 c670 +1 c671 = +1
 r451: +1 c672 +1 c673 +1 c674 = +1
 r452: +1 c675 +1 c676 +1 c677 = +1
 r453: +1 c678 +1 c679 +1 c680 = +1
 r454: +1 c681 +1 c682 +1 c683 = +1
 r455: +1 c684 +1 c685 +1 c686 = +1
 r456: +1 c687 +1 c688 +1 c689 = +1
 r457: +1 c690 +1 c691 +1 c692 = +1
 r458: +1 c693 +1 c694 +1 c695 = +1
 r459: +1 c696 +1 c697 +1 c698 = +1
 r460: +1 c699 +1 c700 +1 c701 = +1
 r461: +1 c702 +1 c703 +1 c704 = +1
 r462: +1 c705 +1 c706 +1 c707 = +1
 r463: +1 c708 +1 c709 +1 c710 = +1
 r464: +1 c711 +1 c712 +1 c713 = +1
 r465: +1 c714 +1 c715 +1 c716 = +1
 r466: +1 c717 +1 c718 +1 c719 = +1
 r467: +1 c720 +1 c721 +1 c722 = +1
 r468: +1 c723 +1 c724 +1 c725 = +1
 r469: +1 c726 +1 c727 +1 c728 = +1
 r470: +1 c729 +1 c730 +1 c731 = +1
 r471: +1 c732 +1 c733 +1 c734 = +1
 r472: +1 c735 +1 c736 +1 c737 = +1
 r473: +1 c738 +1 c739 +1 c740 = +1
 r474: +1 c741 +1 c742 +1 c743 = +1
 r475: +1 c744 +1 c745 +1 c746 = +1
 r476: +1 c747 +1 c748 +1 c749 = +1
 r477: +1 c750 +1 c751 +1 c752 = +1
 r478: +1 c753 +1 c754 +1 c755 = +1
 r479: +1 c756 +1 c757 +1 c758 = +1
 r480: +1 c759 +1 c760 +1 c761 = +1
 r481: +1 c762 +1 c763 +1 c764 = +1
 r482: +1 c765 +1 c766 +1 c767 = +1
 r483: +1 c768 +1 c769 +1 c770 = +1
 r484: +1 c771 +1 c772 +1 c773 = +1
 r485: +1 c774 +1 c775 +1 c776 = +1
 r486: +1 c777 +1 c778 +1 c779 = +1
 r487: +1 c416 -1 c624 <= +0
 r488: +1 c420 -1 c627 <= +0
 r489: +1 c424 -1 c630 <= +0
 r490: +1 c428 -1 c633 <= +0
 r491: +1 c432 -1 c636 <= +0
 r492: +1 c436 -1 c639 <= +0
 r493: +1 c440 -1 c642 <= +0
 r494: +1 c444 -1 c645 <= +0
 r495: +1 c448 -1 c648 <= +0
 r496: +1 c452 -1 c651 <= +0
 r497: +1 c456 -1 c654 <= +0
 r498: +1 c460 -1 c657 <= +0
 r499: +1 c464 -1 c660 <= +0
 r500: +1 c468 -1 c663 <= +0
 r501: +1 c472 -1 c666 <= +0
 r502: +1 c476 -1 c669 <= +0
 r503: +1 c480 -1 c672 <= +0
 r504: +1 c484 -1 c675 <= +0
 r505: +1 c488 -1 c678 <= +0
 r506: +1 c492 -1 c681 <= +0
 r507: +1 c496 -1 c684 <= +0
 r508: +1 c500 -1 c687 <= +0
 r509: +1 c504 -1 c690 <= +0
 r510: +1 c508 -1 c693 <= +0
 r511: +1 c512 -1 c696 <= +0
 r512: +1 c516 -1 c699 <= +0
 r513: +1 c419 -1 c626 <= +0
 r514: +1 c423 -1 c629 <= +0
 r515: +1 c427 -1 c632 <= +0
 r516: +1 c431 -1 c635 <= +0
 r517: +1 c435 -1 c638 <= +0
 r518: +1 c439 -1 c641 <= +0
 r519: +1 c443 -1 c644 <= +0
 r520: +1 c447 -1 c647 <= +0
 r521: +1 c451 -1 c650 <= +0
 r522: +1 c455 -1 c653 <= +0
 r523: +1 c459 -1 c656 <= +0
 r524: +1 c463 -1 c659 <= +0
 r525: +1 c467 -1 c662 <= +0
 r526: +1 c471 -1 c665 <= +0
 r527: +1 c475 -1 c668 <= +0
 r528: +1 c479 -1 c671 <= +0
 r529: +1 c483 -1 c674 <= +0
 r530: +1 c487 -1 c677 <= +0
 r531: +1 c491 -1 c680 <= +0
 r532: +1 c495 -1 c683 <= +0
 r533: +1 c499 -1 c686 <= +0
 r534: +1 c503 -1 c689 <= +0
 r535: +1 c507 -1 c692 <= +0
 r536: +1 c511 -1 c695 <= +0
 r537: +1 c515 -1 c698 <= +0
 r538: +1 c519 -1 c701 <= +0
 r539: +1 c520 -1 c702 <= +0
 r540: +1 c524 -1 c705 <= +0
 r541: +1 c528 -1 c708 <= +0
 r542: +1 c532 -1 c711 <= +0
 r543: +1 c536 -1 c714 <= +0
 r544: +1 c540 -1 c717 <= +0
 r545: +1 c544 -1 c720 <= +0
 r546: +1 c548 -1 c723 <= +0
 r547: +1 c552 -1 c726 <= +0
 r548: +1 c556 -1 c729 <= +0
 r549: +1 c560 -1 c732 <= +0
 r550: +1 c564 -1 c735 <= +0
 r551: +1 c568 -1 c738 <= +0
 r552: +1 c572 -1 c741 <= +0
 r553: +1 c576 -1 c744 <= +0
 r554: +1 c580 -1 c747 <= +0
 r555: +1 c584 -1 c750 <= +0
 r556: +1 c588 -1 c753 <= +0
 r557: +1 c592 -1 c756 <= +0
 r558: +1 c596 -1 c759 <= +0
 r559: +1 c600 -1 c762 <= +0
 r560: +1 c604 -1 c765 <= +0
 r561: +1 c608 -1 c768 <= +0
 r562: +1 c612 -1 c771 <= +0
 r563: +1 c616 -1 c774 <= +0
 r564: +1 c620 -1 c777 <= +0
 r565: +1 c523 -1 c704 <= +0
 r566: +1 c527 -1 c707 <= +0
 r567: +1 c531 -1 c710 <= +0
 r568: +1 c535 -1 c713 <= +0
 r569: +1 c539 -1 c716 <= +0
 r570: +1 c543 -1 c719 <= +0
 r571: +1 c547 -1 c722 <= +0
 r572: +1 c551 -1 c725 <= +0
 r573: +1 c555 -1 c728 <= +0
 r574: +1 c559 -1 c731 <= +0
 r575: +1 c563 -1 c734 <= +0
 r576: +1 c567 -1 c737 <= +0
 r577: +1 c571 -1 c740 <= +0
 r578: +1 c575 -1 c743 <= +0
 r579: +1 c579 -1 c746 <= +0
 r580: +1 c583 -1 c749 <= +0
 r581: +1 c587 -1 c752 <= +0
 r582: +1 c591 -1 c755 <= +0
 r583: +1 c595 -1 c758 <= +0
 r584: +1 c599 -1 c761 <= +0
 r585: +1 c603 -1 c764 <= +0
 r586: +1 c607 -1 c767 <= +0
 r587: +1 c611 -1 c770 <= +0
 r588: +1 c615 -1 c773 <= +0
 r589: +1 c619 -1 c776 <= +0
 r590: +1 c623 -1 c779 <= +0
 r591: +1 c417 -1 c624 -1 c625 <= +0
 r592: +1 c418 -1 c625 -1 c626 <= +0
 r593: +1 c421 -1 c627 -1 c628 <= +0
 r594: +1 c422 -1 c628 -1 c629 <= +0
 r595: +1 c425 -1 c630 -1 c631 <= +0
 r596: +1 c426 -1 c631 -1 c632 <= +0
 r597: +1 c429 -1 c633 -1 c634 <= +0
 r598: +1 c430 -1 c634 -1 c635 <= +0
 r599: +1 c433 -1 c636 -1 c637 <= +0
 r600: +1 c434 -1 c637 -1 c638 <= +0
 r601: +1 c437 -1 c639 -1 c640 <= +0
 r602: +1 c438 -1 c640 -1 c641 <= +0
 r603: +1 c441 -1 c642 -1 c643 <= +0
 r604: +1 c442 -1 c643 -1 c644 <= +0
 r605: +1 c445 -1 c645 -1 c646 <= +0
 r606: +1 c446 -1 c646 -1 c647 <= +0
 r607: +1 c449 -1 c648 -1 c649 <= +0
 r608: +1 c450 -1 c649 -1 c650 <= +0
 r609: +1 c453 -1 c651 -1 c652 <= +0
 r610: +1 c454 -1 c652 -1 c653 <= +0
 r611: +1 c457 -1 c654 -1 c655 <= +0
 r612: +1 c458 -1 c655 -1 c656 <= +0
 r613: +1 c461 -1 c657 -1 c658 <= +0
 r614: +1 c462 -1 c658 -1 c659 <= +0
 r615: +1 c465 -1 c660 -1 c661 <= +0
 r616: +1 c466 -1 c661 -1 c662 <= +0
 r617: +1 c469 -1 c663 -1 c664 <= +0
 r618: +1 c470 -1 c664 -1 c665 <= +0
 r619: +1 c473 -1 c666 -1 c667 <= +0
 r620: +1 c474 -1 c667 -1 c668 <= +0
 r621: +1 c477 -1 c669 -1 c670 <= +0
 r622: +1 c478 -1 c670 -1 c671 <= +0
 r623: +1 c481 -1 c672 -1 c673 <= +0
 r624: +1 c482 -1 c673 -1 c674 <= +0
 r625: +1 c485 -1 c675 -1 c676 <= +0
 r626: +1 c486 -1 c676 -1 c677 <= +0
 r627: +1 c489 -1 c678 -1 c679 <= +0
 r628: +1 c490 -1 c679 -1 c680 <= +0
 r629: +1 c493 -1 c681 -1 c682 <= +0
 r630: +1 c494 -1 c682 -1 c683 <= +0
 r631: +1 c497 -1 c684 -1 c685 <= +0
 r632: +1 c498 -1 c685 -1 c686 <= +0
 r633: +1 c501 -1 c687 -1 c688 <= +0
 r634: +1 c502 -1 c688 -1 c689 <= +0
 r635: +1 c505 -1 c690 -1 c691 <= +0
 r636: +1 c506 -1 c691 -1 c692 <= +0
 r637: +1 c509 -1 c693 -1 c694 <= +0
 r638: +1 c510 -1 c694 -1 c695 <= +0
 r639: +1 c513 -1 c696 -1 c697 <= +0
 r640: +1 c514 -1 c697 -1 c698 <= +0
 r641: +1 c517 -1 c699 -1 c700 <= +0
 r642: +1 c518 -1 c700 -1 c701 <= +0
 r643: +1 c521 -1 c702 -1 c703 <= +0
 r644: +1 c522 -1 c703 -1 c704 <= +0
 r645: +1 c525 -1 c705 -1 c706 <= +0
 r646: +1 c526 -1 c706 -1 c707 <= +0
 r647: +1 c529 -1 c708 -1 c709 <= +0
 r648: +1 c530 -1 c709 -1 c710 <= +0
 r649: +1 c533 -1 c711 -1 c712 <= +0
 r650: +1 c534 -1 c712 -1 c713 <= +0
 r651: +1 c537 -1 c714 -1 c715 <= +0
 r652: +1 c538 -1 c715 -1 c716 <= +0
 r653: +1 c541 -1 c717 -1 c718 <= +0
 r654: +1 c542 -1 c718 -1 c719 <= +0
 r655: +1 c545 -1 c720 -1 c721 <= +0
 r656: +1 c546 -1 c721 -1 c722 <= +0
 r657: +1 c549 -1 c723 -1 c724 <= +0
 r658: +1 c550 -1 c724 -1 c725 <= +0
 r659: +1 c553 -1 c726 -1 c727 <= +0
 r660: +1 c554 -1 c727 -1 c728 <= +0
 r661: +1 c557 -1 c729 -1 c730 <= +0
 r662: +1 c558 -1 c730 -1 c731 <= +0
 r663: +1 c561 -1 c732 -1 c733 <= +0
 r664: +1 c562 -1 c733 -1 c734 <= +0
 r665: +1 c565 -1 c735 -1 c736 <= +0
 r666: +1 c566 -1 c736 -1 c737 <= +0
 r667: +1 c569 -1 c738 -1 c739 <= +0
 r668: +1 c570 -1 c739 -1 c740 <= +0
 r669: +1 c573 -1 c741 -1 c742 <= +0
 r670: +1 c574 -1 c742 -1 c743 <= +0
 r671: +1 c577 -1 c744 -1 c745 <= +0
 r672: +1 c578 -1 c745 -1 c746 <= +0
 r673: +1 c581 -1 c747 -1 c748 <= +0
 r674: +1 c582 -1 c748 -1 c749 <= +0
 r675: +1 c585 -1 c750 -1 c751 <= +0
 r676: +1 c586 -1 c751 -1 c752 <= +0
 r677: +1 c589 -1 c753 -1 c754 <= +0
 r678: +1 c590 -1 c754 -1 c755 <= +0
 r679: +1 c593 -1 c756 -1 c757 <= +0
 r680: +1 c594 -1 c757 -1 c758 <= +0
 r681: +1 c597 -1 c759 -1 c760 <= +0
 r682: +1 c598 -1 c760 -1 c761 <= +0
 r683: +1 c601 -1 c762 -1 c763 <= +0
 r684: +1 c602 -1 c763 -1 c764 <= +0
 r685: +1 c605 -1 c765 -1 c766 <= +0
 r686: +1 c606 -1 c766 -1 c767 <= +0
 r687: +1 c609 -1 c768 -1 c769 <= +0
 r688: +1 c610 -1 c769 -1 c770 <= +0
 r689: +1 c613 -1 c771 -1 c772 <= +0
 r690: +1 c614 -1 c772 -1 c773 <= +0
 r691: +1 c617 -1 c774 -1 c775 <= +0
 r692: +1 c618 -1 c775 -1 c776 <= +0
 r693: +1 c621 -1 c777 -1 c778 <= +0
 r694: +1 c622 -1 c778 -1 c779 <= +0
 r695: -1 c74 -1 c193 +1 c780 = +0
 r696: -1 c76 -1 c196 +1 c781 = +0
 r697: -1 c78 -1 c199 +1 c782 = +0
 r698: -1 c80 -1 c202 +1 c783 = +0
 r699: -1 c82 -1 c205 +1 c784 = +0
 r700: -1 c84 -1 c208 +1 c785 = +0
 r701: -1 c86 -1 c211 +1 c786 = +0
 r702: -1 c88 -1 c214 +1 c787 = +0
 r703: -1 c90 -1 c217 +1 c788 = +0
 r704: -1 c92 -1 c220 +1 c789 = +0
 r705: -1 c94 -1 c223 +1 c790 = +0
 r706: -1 c96 -1 c226 +1 c791 = +0
 r707: -1 c98 -1 c229 +1 c792 = +0
 r708: -1 c100 -1 c232 +1 c793 = +0
 r709: -1 c102 -1 c235 +1 c794 = +0
 r710: -1 c104 -1 c238 +1 c795 = +0
 r711: -1 c106 -1 c241 +1 c796 = +0
 r712: -1 c108 -1 c244 +1 c797 = +0
 r713: -1 c110 -1 c247 +1 c798 = +0
 r714: -1 c112 -1 c250 +1 c799 = +0
 r715: -1 c114 -1 c253 +1 c800 = +0
 r716: -1 c116 -1 c256 +1 c801 = +0
 r717: -1 c118 -1 c259 +1 c802 = +0
 r718: -1 c120 -1 c262 +1 c803 = +0
 r719: -1 c122 -1 c265 +1 c804 = +0
 r720: -1 c124 -1 c268 +1 c805 = +0
 r721: -1 c183 +1 c806 = +0
 r722: -1 c186 +1 c807 = +0
 r723: -1 c189 +1 c808 = +0
 r724: -1 c11 +1 c809 = +0
 r725: +1 c271 +1 c272 +1 c273 +1 c274 +1 c275 <= +1
 r726: +1 c276 +1 c277 +1 c278 +1 c279 +1 c280 <= +1
 r727: +1 c281 +1 c282 +1 c283 +1 c284 +1 c285 <= +1
 r728: +1 c286 +1 c287 +1 c288 +1 c289 +1 c290 <= +1
 r729: +1 c291 +1 c292 +1 c293 +1 c294 +1 c295 <= +1
 r730: +1 c296 +1 c297 +1 c298 +1 c299 +1 c300 <= +1
 r731: +1 c301 +1 c302 +1 c303 +1 c304 +1 c305 <= +1
 r732: +1 c306 +1 c307 +1 c308 +1 c309 +1 c310 <= +1
 r733: +1 c311 +1 c312 +1 c313 +1 c314 +1 c315 <= +1
 r734: +1 c316 +1 c317 +1 c318 +1 c319 +1 c320 <= +1
 r735: +1 c321 +1 c322 +1 c323 +1 c324 +1 c325 <= +1
 r736: +1 c326 +1 c327 +1 c328 +1 c329 +1 c330 <= +1
 r737: +1 c331 +1 c332 +1 c333 +1 c334 +1 c335 <= +1
 r738: +1 c336 +1 c337 +1 c338 +1 c339 +1 c340 <= +1
 r739: +1 c341 +1 c342 +1 c343 +1 c344 +1 c345 <= +1
 r740: +1 c346 +1 c347 +1 c348 +1 c349 +1 c350 <= +1
 r741: +1 c351 +1 c352 +1 c353 +1 c354 +1 c355 <= +1
 r742: +1 c356 +1 c357 +1 c358 +1 c359 +1 c360 <= +1
 r743: +1 c361 +1 c362 +1 c363 +1 c364 +1 c365 <= +1
 r744: +1 c366 +1 c367 +1 c368 +1 c369 +1 c370 <= +1
 r745: +1 c371 +1 c372 +1 c373 +1 c374 +1 c375 <= +1
 r746: +1 c376 +1 c377 +1 c378 +1 c379 +1 c380 <= +1
 r747: +1 c381 +1 c382 +1 c383 +1 c384 +1 c385 <= +1
 r748: +1 c386 +1 c387 +1 c388 +1 c389 +1 c390 <= +1
 r749: +1 c391 +1 c392 +1 c393 +1 c394 +1 c395 <= +1
 r750: +1 c396 +1 c397 +1 c398 +1 c399 +1 c400 <= +1
 r751: +1 c401 +1 c402 +1 c403 +1 c404 +1 c405 <= +1
 r752: +1 c406 +1 c407 +1 c408 +1 c409 +1 c410 <= +1
 r753: +1 c411 +1 c412 +1 c413 +1 c414 +1 c415 <= +1
 r754: +1 c6 +1 c7 +1 c8 +1 c9 +1 c10 <= +1
 r755: +0.75 c271 -1 c780 <= +0
 r756: +0.75 c276 -1 c781 <= +0
 r757: +0.75 c281 -1 c782 <= +0
 r758: +0.75 c286 -1 c783 <= +0
 r759: +0.75 c291 -1 c784 <= +0
 r760: +0.75 c296 -1 c785 <= +0
 r761: +0.75 c301 -1 c786 <= +0
 r762: +0.75 c306 -1 c787 <= +0
 r763: +0.75 c311 -1 c788 <= +0
 r764: +0.75 c316 -1 c806 <= +0
 r765: +0.75 c321 -1 c807 <= +0
 r766: +0.75 c326 -1 c789 <= +0
 r767: +0.75 c331 -1 c790 <= +0
 r768: +0.75 c336 -1 c808 <= +0
 r769: +0.75 c341 -1 c791 <= +0
 r770: +0.75 c346 -1 c792 <= +0
 r771: +0.75 c351 -1 c793 <= +0
 r772: +0.75 c356 -1 c794 <= +0
 r773: +0.75 c361 -1 c795 <= +0
 r774: +0.75 c366 -1 c796 <= +0
 r775: +0.75 c371 -1 c797 <= +0
 r776: +0.75 c376 -1 c798 <= +0
 r777: +0.75 c381 -1 c799 <= +0
 r778: +0.75 c386 -1 c800 <= +0
 r779: +0.75 c391 -1 c801 <= +0
 r780: +0.75 c396 -1 c802 <= +0
 r781: +0.75 c401 -1 c803 <= +0
 r782: +0.75 c406 -1 c804 <= +0
 r783: +0.75 c411 -1 c805 <= +0
 r784: +0.75 c6 -1 c809 <= +0
 r785: +0.25 c272 -1 c780 <= +0
 r786: +0.25 c277 -1 c781 <= +0
 r787: +0.25 c282 -1 c782 <= +0
 r788: +0.25 c287 -1 c783 <= +0
 r789: +0.25 c292 -1 c784 <= +0
 r790: +0.25 c297 -1 c785 <= +0
 r791: +0.25 c302 -1 c786 <= +0
 r792: +0.25 c307 -1 c787 <= +0
 r793: +0.25 c312 -1 c788 <= +0
 r794: +0.25 c317 -1 c806 <= +0
 r795: +0.25 c322 -1 c807 <= +0
 r796: +0.25 c327 -1 c789 <= +0
 r797: +0.25 c332 -1 c790 <= +0
 r798: +0.25 c337 -1 c808 <= +0
 r799: +0.25 c342 -1 c791 <= +0
 r800: +0.25 c347 -1 c792 <= +0
 r801: +0.25 c352 -1 c793 <= +0
 r802: +0.25 c357 -1 c794 <= +0
 r803: +0.25 c362 -1 c795 <= +0
 r804: +0.25 c367 -1 c796 <= +0
 r805: +0.25 c372 -1 c797 <= +0
 r806: +0.25 c377 -1 c798 <= +0
 r807: +0.25 c382 -1 c799 <= +0
 r808: +0.25 c387 -1 c800 <= +0
 r809: +0.25 c392 -1 c801 <= +0
 r810: +0.25 c397 -1 c802 <= +0
 r811: +0.25 c402 -1 c803 <= +0
 r812: +0.25 c407 -1 c804 <= +0
 r813: +0.25 c412 -1 c805 <= +0
 r814: +0.25 c7 -1 c809 <= +0
 r815: +0.5 c273 -1 c780 <= +0
 r816: +0.5 c278 -1 c781 <= +0
 r817: +0.5 c283 -1 c782 <= +0
 r818: +0.5 c288 -1 c783 <= +0
 r819: +0.5 c293 -1 c784 <= +0
 r820: +0.5 c298 -1 c785 <= +0
 r821: +0.5 c303 -1 c786 <= +0
 r822: +0.5 c308 -1 c787 <= +0
 r823: +0.5 c313 -1 c788 <= +0
 r824: +0.5 c318 -1 c806 <= +0
 r825: +0.5 c323 -1 c807 <= +0
 r826: +0.5 c328 -1 c789 <= +0
 r827: +0.5 c333 -1 c790 <= +0
 r828: +0.5 c338 -1 c808 <= +0
 r829: +0.5 c343 -1 c791 <= +0
 r830: +0.5 c348 -1 c792 <= +0
 r831: +0.5 c353 -1 c793 <= +0
 r832: +0.5 c358 -1 c794 <= +0
 r833: +0.5 c363 -1 c795 <= +0
 r834: +0.5 c368 -1 c796 <= +0
 r835: +0.5 c373 -1 c797 <= +0
 r836: +0.5 c378 -1 c798 <= +0
 r837: +0.5 c383 -1 c799 <= +0
 r838: +0.5 c388 -1 c800 <= +0
 r839: +0.5 c393 -1 c801 <= +0
 r840: +0.5 c398 -1 c802 <= +0
 r841: +0.5 c403 -1 c803 <= +0
 r842: +0.5 c408 -1 c804 <= +0
 r843: +0.5 c413 -1 c805 <= +0
 r844: +0.5 c8 -1 c809 <= +0
 r845: +1 c193 -1000 c271 -1000 c272 -1000 c273 <= +0
 r846: +1 c196 -1000 c276 -1000 c277 -1000 c278 <= +0
 r847: +1 c199 -1000 c281 -1000 c282 -1000 c283 <= +0
 r848: +1 c202 -1000 c286 -1000 c287 -1000 c288 <= +0
 r849: +1 c205 -1000 c291 -1000 c292 -1000 c293 <= +0
 r850: +1 c208 -1000 c296 -1000 c297 -1000 c298 <= +0
 r851: +1 c211 -1000 c301 -1000 c302 -1000 c303 <= +0
 r852: +1 c214 -1000 c306 -1000 c307 -1000 c308 <= +0
 r853: +1 c217 -1000 c311 -1000 c312 -1000 c313 <= +0
 r854: +1 c183 -1000 c316 -1000 c317 -1000 c318 <= +0
 r855: +1 c186 -1000 c321 -1000 c322 -1000 c323 <= +0
 r856: +1 c220 -1000 c326 -1000 c327 -1000 c328 <= +0
 r857: +1 c223 -1000 c331 -1000 c332 -1000 c333 <= +0
 r858: +1 c189 -1000 c336 -1000 c337 -1000 c338 <= +0
 r859: +1 c226 -1000 c341 -1000 c342 -1000 c343 <= +0
 r860: +1 c229 -1000 c346 -1000 c347 -1000 c348 <= +0
 r861: +1 c232 -1000 c351 -1000 c352 -1000 c353 <= +0
 r862: +1 c235 -1000 c356 -1000 c357 -1000 c358 <= +0
 r863: +1 c238 -1000 c361 -1000 c362 -1000 c363 <= +0
 r864: +1 c241 -1000 c366 -1000 c367 -1000 c368 <= +0
 r865: +1 c244 -1000 c371 -1000 c372 -1000 c373 <= +0
 r866: +1 c247 -1000 c376 -1000 c377 -1000 c378 <= +0
 r867: +1 c250 -1000 c381 -1000 c382 -1000 c383 <= +0
 r868: +1 c253 -1000 c386 -1000 c387 -1000 c388 <= +0
 r869: +1 c256 -1000 c391 -1000 c392 -1000 c393 <= +0
 r870: +1 c259 -1000 c396 -1000 c397 -1000 c398 <= +0
 r871: +1 c262 -1000 c401 -1000 c402 -1000 c403 <= +0
 r872: +1 c265 -1000 c406 -1000 c407 -1000 c408 <= +0
 r873: +1 c268 -1000 c411 -1000 c412 -1000 c413 <= +0
 r874: -1000 c6 -1000 c7 -1000 c8 +1 c11 <= +0
 r875: -1 c4 +1 c273 <= +0
 r876: +1 c278 -1 c810 <= +0
 r877: +1 c283 -1 c811 <= +0
 r878: +1 c288 -1 c812 <= +0
 r879: +1 c293 -1 c813 <= +0
 r880: +1 c298 -1 c814 <= +0
 r881: +1 c303 -1 c815 <= +0
 r882: +1 c308 -1 c816 <= +0
 r883: +1 c313 -1 c817 <= +0
 r884: +1 c318 -1 c818 <= +0
 r885: +1 c323 -1 c819 <= +0
 r886: +1 c328 -1 c820 <= +0
 r887: +1 c333 -1 c821 <= +0
 r888: +1 c338 -1 c822 <= +0
 r889: +1 c343 -1 c823 <= +0
 r890: +1 c348 -1 c824 <= +0
 r891: +1 c353 -1 c825 <= +0
 r892: +1 c358 -1 c826 <= +0
 r893: +1 c363 -1 c827 <= +0
 r894: +1 c368 -1 c828 <= +0
 r895: +1 c373 -1 c829 <= +0
 r896: +1 c378 -1 c830 <= +0
 r897: +1 c383 -1 c831 <= +0
 r898: +1 c388 -1 c832 <= +0
 r899: +1 c393 -1 c833 <= +0
 r900: +1 c398 -1 c834 <= +0
 r901: +1 c403 -1 c835 <= +0
 r902: +1 c408 -1 c836 <= +0
 r903: +1 c413 -1 c837 <= +0
 r904: +1 c8 -1 c838 <= +0
 r905: +1 c4 -1 c271 +1 c272 -1 c273 -1 c274 -1 c275 -1 c810 <= +0
 r906: -1 c276 +1 c277 -1 c278 -1 c279 -1 c280 +1 c810 -1 c811 <= +0
 r907: -1 c281 +1 c282 -1 c283 -1 c284 -1 c285 +1 c811 -1 c812 <= +0
 r908: -1 c286 +1 c287 -1 c288 -1 c289 -1 c290 +1 c812 -1 c813 <= +0
 r909: -1 c291 +1 c292 -1 c293 -1 c294 -1 c295 +1 c813 -1 c814 <= +0
 r910: -1 c296 +1 c297 -1 c298 -1 c299 -1 c300 +1 c814 -1 c815 <= +0
 r911: -1 c301 +1 c302 -1 c303 -1 c304 -1 c305 +1 c815 -1 c816 <= +0
 r912: -1 c306 +1 c307 -1 c308 -1 c309 -1 c310 +1 c816 -1 c817 <= +0
 r913: -1 c311 +1 c312 -1 c313 -1 c314 -1 c315 +1 c817 -1 c818 <= +0
 r914: -1 c316 +1 c317 -1 c318 -1 c319 -1 c320 +1 c818 -1 c819 <= +0
 r915: -1 c321 +1 c322 -1 c323 -1 c324 -1 c325 +1 c819 -1 c820 <= +0
 r916: -1 c326 +1 c327 -1 c328 -1 c329 -1 c330 +1 c820 -1 c821 <= +0
 r917: -1 c331 +1 c332 -1 c333 -1 c334 -1 c335 +1 c821 -1 c822 <= +0
 r918: -1 c336 +1 c337 -1 c338 -1 c339 -1 c340 +1 c822 -1 c823 <= +0
 r919: -1 c341 +1 c342 -1 c343 -1 c344 -1 c345 +1 c823 -1 c824 <= +0
 r920: -1 c346 +1 c347 -1 c348 -1 c349 -1 c350 +1 c824 -1 c825 <= +0
 r921: -1 c351 +1 c352 -1 c353 -1 c354 -1 c355 +1 c825 -1 c826 <= +0
 r922: -1 c356 +1 c357 -1 c358 -1 c359 -1 c360 +1 c826 -1 c827 <= +0
 r923: -1 c361 +1 c362 -1 c363 -1 c364 -1 c365 +1 c827 -1 c828 <= +0
 r924: -1 c366 +1 c367 -1 c368 -1 c369 -1 c370 +1 c828 -1 c829 <= +0
 r925: -1 c371 +1 c372 -1 c373 -1 c374 -1 c375 +1 c829 -1 c830 <= +0
 r926: -1 c376 +1 c377 -1 c378 -1 c379 -1 c380 +1 c830 -1 c831 <= +0
 r927: -1 c381 +1 c382 -1 c383 -1 c384 -1 c385 +1 c831 -1 c832 <= +0
 r928: -1 c386 +1 c387 -1 c388 -1 c389 -1 c390 +1 c832 -1 c833 <= +0
 r929: -1 c391 +1 c392 -1 c393 -1 c394 -1 c395 +1 c833 -1 c834 <= +0
 r930: -1 c396 +1 c397 -1 c398 -1 c399 -1 c400 +1 c834 -1 c835 <= +0
 r931: -1 c401 +1 c402 -1 c403 -1 c404 -1 c405 +1 c835 -1 c836 <= +0
 r932: -1 c406 +1 c407 -1 c408 -1 c409 -1 c410 +1 c836 -1 c837 <= +0
 r933: -1 c411 +1 c412 -1 c413 -1 c414 -1 c415 +1 c837 -1 c838 <= +0
 r934: -1 c4 -1 c272 +1 c810 <= +0
 r935: -1 c277 -1 c810 +1 c811 <= +0
 r936: -1 c282 -1 c811 +1 c812 <= +0
 r937: -1 c287 -1 c812 +1 c813 <= +0
 r938: -1 c292 -1 c813 +1 c814 <= +0
 r939: -1 c297 -1 c814 +1 c815 <= +0
 r940: -1 c302 -1 c815 +1 c816 <= +0
 r941: -1 c307 -1 c816 +1 c817 <= +0
 r942: -1 c312 -1 c817 +1 c818 <= +0
 r943: -1 c317 -1 c818 +1 c819 <= +0
 r944: -1 c322 -1 c819 +1 c820 <= +0
 r945: -1 c327 -1 c820 +1 c821 <= +0
 r946: -1 c332 -1 c821 +1 c822 <= +0
 r947: -1 c337 -1 c822 +1 c823 <= +0
 r948: -1 c342 -1 c823 +1 c824 <= +0
 r949: -1 c347 -1 c824 +1 c825 <= +0
 r950: -1 c352 -1 c825 +1 c826 <= +0
 r951: -1 c357 -1 c826 +1 c827 <= +0
 r952: -1 c362 -1 c827 +1 c828 <= +0
 r953: -1 c367 -1 c828 +1 c829 <= +0
 r954: -1 c372 -1 c829 +1 c830 <= +0
 r955: -1 c377 -1 c830 +1 c831 <= +0
 r956: -1 c382 -1 c831 +1 c832 <= +0
 r957: -1 c387 -1 c832 +1 c833 <= +0
 r958: -1 c392 -1 c833 +1 c834 <= +0
 r959: -1 c397 -1 c834 +1 c835 <= +0
 r960: -1 c402 -1 c835 +1 c836 <= +0
 r961: -1 c407 -1 c836 +1 c837 <= +0
 r962: -1 c412 -1 c837 +1 c838 <= +0
 r963: +1 c271 +1 c273 +1 c274 +1 c275 +1 c810 <= +1
 r964: +1 c276 +1 c278 +1 c279 +1 c280 +1 c811 <= +1
 r965: +1 c281 +1 c283 +1 c284 +1 c285 +1 c812 <= +1
 r966: +1 c286 +1 c288 +1 c289 +1 c290 +1 c813 <= +1
 r967: +1 c291 +1 c293 +1 c294 +1 c295 +1 c814 <= +1
 r968: +1 c296 +1 c298 +1 c299 +1 c300 +1 c815 <= +1
 r969: +1 c301 +1 c303 +1 c304 +1 c305 +1 c816 <= +1
 r970: +1 c306 +1 c308 +1 c309 +1 c310 +1 c817 <= +1
 r971: +1 c311 +1 c313 +1 c314 +1 c315 +1 c818 <= +1
 r972: +1 c316 +1 c318 +1 c319 +1 c320 +1 c819 <= +1
 r973: +1 c321 +1 c323 +1 c324 +1 c325 +1 c820 <= +1
 r974: +1 c326 +1 c328 +1 c329 +1 c330 +1 c821 <= +1
 r975: +1 c331 +1 c333 +1 c334 +1 c335 +1 c822 <= +1
 r976: +1 c336 +1 c338 +1 c339 +1 c340 +1 c823 <= +1
 r977: +1 c341 +1 c343 +1 c344 +1 c345 +1 c824 <= +1
 r978: +1 c346 +1 c348 +1 c349 +1 c350 +1 c825 <= +1
 r979: +1 c351 +1 c353 +1 c354 +1 c355 +1 c826 <= +1
 r980: +1 c356 +1 c358 +1 c359 +1 c360 +1 c827 <= +1
 r981: +1 c361 +1 c363 +1 c364 +1 c365 +1 c828 <= +1
 r982: +1 c366 +1 c368 +1 c369 +1 c370 +1 c829 <= +1
 r983: +1 c371 +1 c373 +1 c374 +1 c375 +1 c830 <= +1
 r984: +1 c376 +1 c378 +1 c379 +1 c380 +1 c831 <= +1
 r985: +1 c381 +1 c383 +1 c384 +1 c385 +1 c832 <= +1
 r986: +1 c386 +1 c388 +1 c389 +1 c390 +1 c833 <= +1
 r987: +1 c391 +1 c393 +1 c394 +1 c395 +1 c834 <= +1
 r988: +1 c396 +1 c398 +1 c399 +1 c400 +1 c835 <= +1
 r989: +1 c401 +1 c403 +1 c404 +1 c405 +1 c836 <= +1
 r990: +1 c406 +1 c408 +1 c409 +1 c410 +1 c837 <= +1
 r991: +1 c411 +1 c413 +1 c414 +1 c415 +1 c838 <= +1
 r992: -1 c194 +11 c274 <= +0
 r993: -1 c197 +11 c279 <= +0
 r994: -1 c200 +11 c284 <= +0
 r995: -1 c203 +11 c289 <= +0
 r996: -1 c206 +11 c294 <= +0
 r997: -1 c209 +11 c299 <= +0
 r998: -1 c212 +11 c304 <= +0
 r999: -1 c215 +11 c309 <= +0
 r1000: -1 c218 +11 c314 <= +0
 r1001: -1 c184 +11 c319 <= +0
 r1002: -1 c187 +11 c324 <= +0
 r1003: -1 c221 +11 c329 <= +0
 r1004: -1 c224 +11 c334 <= +0
 r1005: -1 c190 +11 c339 <= +0
 r1006: -1 c227 +11 c344 <= +0
 r1007: -1 c230 +11 c349 <= +0
 r1008: -1 c233 +11 c354 <= +0
 r1009: -1 c236 +11 c359 <= +0
 r1010: -1 c239 +11 c364 <= +0
 r1011: -1 c242 +11 c369 <= +0
 r1012: -1 c245 +11 c374 <= +0
 r1013: -1 c248 +11 c379 <= +0
 r1014: -1 c251 +11 c384 <= +0
 r1015: -1 c254 +11 c389 <= +0
 r1016: -1 c257 +11 c394 <= +0
 r1017: -1 c260 +11 c399 <= +0
 r1018: -1 c263 +11 c404 <= +0
 r1019: -1 c266 +11 c409 <= +0
 r1020: -1 c269 +11 c414 <= +0
 r1021: +11 c9 -1 c12 <= +0
 r1022: -1 c194 +9 c275 <= +0
 r1023: -1 c197 +9 c280 <= +0
 r1024: -1 c200 +9 c285 <= +0
 r1025: -1 c203 +9 c290 <= +0
 r1026: -1 c206 +9 c295 <= +0
 r1027: -1 c209 +9 c300 <= +0
 r1028: -1 c212 +9 c305 <= +0
 r1029: -1 c215 +9 c310 <= +0
 r1030: -1 c218 +9 c315 <= +0
 r1031: -1 c184 +9 c320 <= +0
 r1032: -1 c187 +9 c325 <= +0
 r1033: -1 c221 +9 c330 <= +0
 r1034: -1 c224 +9 c335 <= +0
 r1035: -1 c190 +9 c340 <= +0
 r1036: -1 c227 +9 c345 <= +0
 r1037: -1 c230 +9 c350 <= +0
 r1038: -1 c233 +9 c355 <= +0
 r1039: -1 c236 +9 c360 <= +0
 r1040: -1 c239 +9 c365 <= +0
 r1041: -1 c242 +9 c370 <= +0
 r1042: -1 c245 +9 c375 <= +0
 r1043: -1 c248 +9 c380 <= +0
 r1044: -1 c251 +9 c385 <= +0
 r1045: -1 c254 +9 c390 <= +0
 r1046: -1 c257 +9 c395 <= +0
 r1047: -1 c260 +9 c400 <= +0
 r1048: -1 c263 +9 c405 <= +0
 r1049: -1 c266 +9 c410 <= +0
 r1050: -1 c269 +9 c415 <= +0
 r1051: +9 c10 -1 c12 <= +0
 r1052: +1 c194 -1000 c274 -1000 c275 <= +0
 r1053: +1 c197 -1000 c279 -1000 c280 <= +0
 r1054: +1 c200 -1000 c284 -1000 c285 <= +0
 r1055: +1 c203 -1000 c289 -1000 c290 <= +0
 r1056: +1 c206 -1000 c294 -1000 c295 <= +0
 r1057: +1 c209 -1000 c299 -1000 c300 <= +0
 r1058: +1 c212 -1000 c304 -1000 c305 <= +0
 r1059: +1 c215 -1000 c309 -1000 c310 <= +0
 r1060: +1 c218 -1000 c314 -1000 c315 <= +0
 r1061: +1 c184 -1000 c319 -1000 c320 <= +0
 r1062: +1 c187 -1000 c324 -1000 c325 <= +0
 r1063: +1 c221 -1000 c329 -1000 c330 <= +0
 r1064: +1 c224 -1000 c334 -1000 c335 <= +0
 r1065: +1 c190 -1000 c339 -1000 c340 <= +0
 r1066: +1 c227 -1000 c344 -1000 c345 <= +0
 r1067: +1 c230 -1000 c349 -1000 c350 <= +0
 r1068: +1 c233 -1000 c354 -1000 c355 <= +0
 r1069: +1 c236 -1000 c359 -1000 c360 <= +0
 r1070: +1 c239 -1000 c364 -1000 c365 <= +0
 r1071: +1 c242 -1000 c369 -1000 c370 <= +0
 r1072: +1 c245 -1000 c374 -1000 c375 <= +0
 r1073: +1 c248 -1000 c379 -1000 c380 <= +0
 r1074: +1 c251 -1000 c384 -1000 c385 <= +0
 r1075: +1 c254 -1000 c389 -1000 c390 <= +0
 r1076: +1 c257 -1000 c394 -1000 c395 <= +0
 r1077: +1 c260 -1000 c399 -1000 c400 <= +0
 r1078: +1 c263 -1000 c404 -1000 c405 <= +0
 r1079: +1 c266 -1000 c409 -1000 c410 <= +0
 r1080: +1 c269 -1000 c414 -1000 c415 <= +0
 r1081: -1000 c9 -1000 c10 +1 c12 <= +0
 r1082: +1 c10 +1 c275 +1 c280 +1 c285 +1 c290 +1 c295 +1 c300 +1 c305 +1 c310 +1 c315 +1 c320 +1 c325 +1 c330 +1 c335 +1 c340 +1 c345 +1 c350 +1 c355 +1 c360 +1 c365 +1 c370 +1 c375 +1 c380 +1 c385 +1 c390 +1 c395 +1 c400 +1 c405 +1 c410 +1 c415 <= +3
 r1083: -4.5 c271 -4.5 c273 -4.5 c274 -4.5 c275 +1 c839 <= +0
 r1084: -4.5 c276 -4.5 c278 -4.5 c279 -4.5 c280 +1 c840 <= +0
 r1085: -4.5 c281 -4.5 c283 -4.5 c284 -4.5 c285 +1 c841 <= +0
 r1086: -4.5 c286 -4.5 c288 -4.5 c289 -4.5 c290 +1 c842 <= +0
 r1087: -4.5 c291 -4.5 c293 -4.5 c294 -4.5 c295 +1 c843 <= +0
 r1088: -4.5 c296 -4.5 c298 -4.5 c299 -4.5 c300 +1 c844 <= +0
 r1089: -4.5 c301 -4.5 c303 -4.5 c304 -4.5 c305 +1 c845 <= +0
 r1090: -4.5 c306 -4.5 c308 -4.5 c309 -4.5 c310 +1 c846 <= +0
 r1091: -4.5 c311 -4.5 c313 -4.5 c314 -4.5 c315 +1 c847 <= +0
 r1092: -4.5 c316 -4.5 c318 -4.5 c319 -4.5 c320 +1 c848 <= +0
 r1093: -4.5 c321 -4.5 c323 -4.5 c324 -4.5 c325 +1 c849 <= +0
 r1094: -4.5 c326 -4.5 c328 -4.5 c329 -4.5 c330 +1 c850 <= +0
 r1095: -4.5 c331 -4.5 c333 -4.5 c334 -4.5 c335 +1 c851 <= +0
 r1096: -4.5 c336 -4.5 c338 -4.5 c339 -4.5 c340 +1 c852 <= +0
 r1097: -4.5 c341 -4.5 c343 -4.5 c344 -4.5 c345 +1 c853 <= +0
 r1098: -4.5 c346 -4.5 c348 -4.5 c349 -4.5 c350 +1 c854 <= +0
 r1099: -4.5 c351 -4.5 c353 -4.5 c354 -4.5 c355 +1 c855 <= +0
 r1100: -4.5 c356 -4.5 c358 -4.5 c359 -4.5 c360 +1 c856 <= +0
 r1101: -4.5 c361 -4.5 c363 -4.5 c364 -4.5 c365 +1 c857 <= +0
 r1102: -4.5 c366 -4.5 c368 -4.5 c369 -4.5 c370 +1 c858 <= +0
 r1103: -4.5 c371 -4.5 c373 -4.5 c374 -4.5 c375 +1 c859 <= +0
 r1104: -4.5 c376 -4.5 c378 -4.5 c379 -4.5 c380 +1 c860 <= +0
 r1105: -4.5 c381 -4.5 c383 -4.5 c384 -4.5 c385 +1 c861 <= +0
 r1106: -4.5 c386 -4.5 c388 -4.5 c389 -4.5 c390 +1 c862 <= +0
 r1107: -4.5 c391 -4.5 c393 -4.5 c394 -4.5 c395 +1 c863 <= +0
 r1108: -4.5 c396 -4.5 c398 -4.5 c399 -4.5 c400 +1 c864 <= +0
 r1109: -4.5 c401 -4.5 c403 -4.5 c404 -4.5 c405 +1 c865 <= +0
 r1110: -4.5 c406 -4.5 c408 -4.5 c409 -4.5 c410 +1 c866 <= +0
 r1111: -4.5 c411 -4.5 c413 -4.5 c414 -4.5 c415 +1 c867 <= +0
 r1112: -4.5 c6 -4.5 c8 -4.5 c9 -4.5 c10 +1 c868 <= +0
 r1113: -1 c2 +1 c839 <= +0
 r1114: +1 c840 -1 c869 <= +0
 r1115: +1 c841 -1 c870 <= +0
 r1116: +1 c842 -1 c871 <= +0
 r1117: +1 c843 -1 c872 <= +0
 r1118: +1 c844 -1 c873 <= +0
 r1119: +1 c845 -1 c874 <= +0
 r1120: +1 c846 -1 c875 <= +0
 r1121: +1 c847 -1 c876 <= +0
 r1122: +1 c848 -1 c877 <= +0
 r1123: +1 c849 -1 c878 <= +0
 r1124: +1 c850 -1 c879 <= +0
 r1125: +1 c851 -1 c880 <= +0
 r1126: +1 c852 -1 c881 <= +0
 r1127: +1 c853 -1 c882 <= +0
 r1128: +1 c854 -1 c883 <= +0
 r1129: +1 c855 -1 c884 <= +0
 r1130: +1 c856 -1 c885 <= +0
 r1131: +1 c857 -1 c886 <= +0
 r1132: +1 c858 -1 c887 <= +0
 r1133: +1 c859 -1 c888 <= +0
 r1134: +1 c860 -1 c889 <= +0
 r1135: +1 c861 -1 c890 <= +0
 r1136: +1 c862 -1 c891 <= +0
 r1137: +1 c863 -1 c892 <= +0
 r1138: +1 c864 -1 c893 <= +0
 r1139: +1 c865 -1 c894 <= +0
 r1140: +1 c866 -1 c895 <= +0
 r1141: +1 c867 -1 c896 <= +0
 r1142: +1 c868 -1 c897 <= +0
 r1143: +1 c2 +4.5 c271 +4.5 c273 +4.5 c274 +4.5 c275 -1 c839 <= +4.5
 r1144: +4.5 c276 +4.5 c278 +4.5 c279 +4.5 c280 -1 c840 +1 c869 <= +4.5
 r1145: +4.5 c281 +4.5 c283 +4.5 c284 +4.5 c285 -1 c841 +1 c870 <= +4.5
 r1146: +4.5 c286 +4.5 c288 +4.5 c289 +4.5 c290 -1 c842 +1 c871 <= +4.5
 r1147: +4.5 c291 +4.5 c293 +4.5 c294 +4.5 c295 -1 c843 +1 c872 <= +4.5
 r1148: +4.5 c296 +4.5 c298 +4.5 c299 +4.5 c300 -1 c844 +1 c873 <= +4.5
 r1149: +4.5 c301 +4.5 c303 +4.5 c304 +4.5 c305 -1 c845 +1 c874 <= +4.5
 r1150: +4.5 c306 +4.5 c308 +4.5 c309 +4.5 c310 -1 c846 +1 c875 <= +4.5
 r1151: +4.5 c311 +4.5 c313 +4.5 c314 +4.5 c315 -1 c847 +1 c876 <= +4.5
 r1152: +4.5 c316 +4.5 c318 +4.5 c319 +4.5 c320 -1 c848 +1 c877 <= +4.5
 r1153: +4.5 c321 +4.5 c323 +4.5 c324 +4.5 c325 -1 c849 +1 c878 <= +4.5
 r1154: +4.5 c326 +4.5 c328 +4.5 c329 +4.5 c330 -1 c850 +1 c879 <= +4.5
 r1155: +4.5 c331 +4.5 c333 +4.5 c334 +4.5 c335 -1 c851 +1 c880 <= +4.5
 r1156: +4.5 c336 +4.5 c338 +4.5 c339 +4.5 c340 -1 c852 +1 c881 <= +4.5
 r1157: +4.5 c341 +4.5 c343 +4.5 c344 +4.5 c345 -1 c853 +1 c882 <= +4.5
 r1158: +4.5 c346 +4.5 c348 +4.5 c349 +4.5 c350 -1 c854 +1 c883 <= +4.5
 r1159: +4.5 c351 +4.5 c353 +4.5 c354 +4.5 c355 -1 c855 +1 c884 <= +4.5
 r1160: +4.5 c356 +4.5 c358 +4.5 c359 +4.5 c360 -1 c856 +1 c885 <= +4.5
 r1161: +4.5 c361 +4.5 c363 +4.5 c364 +4.5 c365 -1 c857 +1 c886 <= +4.5
 r1162: +4.5 c366 +4.5 c368 +4.5 c369 +4.5 c370 -1 c858 +1 c887 <= +4.5
 r1163: +4.5 c371 +4.5 c373 +4.5 c374 +4.5 c375 -1 c859 +1 c888 <= +4.5
 r1164: +4.5 c376 +4.5 c378 +4.5 c379 +4.5 c380 -1 c860 +1 c889 <= +4.5
 r1165: +4.5 c381 +4.5 c383 +4.5 c384 +4.5 c385 -1 c861 +1 c890 <= +4.5
 r1166: +4.5 c386 +4.5 c388 +4.5 c389 +4.5 c390 -1 c862 +1 c891 <= +4.5
 r1167: +4.5 c391 +4.5 c393 +4.5 c394 +4.5 c395 -1 c863 +1 c892 <= +4.5
 r1168: +4.5 c396 +4.5 c398 +4.5 c399 +4.5 c400 -1 c864 +1 c893 <= +4.5
 r1169: +4.5 c401 +4.5 c403 +4.5 c404 +4.5 c405 -1 c865 +1 c894 <= +4.5
 r1170: +4.5 c406 +4.5 c408 +4.5 c409 +4.5 c410 -1 c866 +1 c895 <= +4.5
 r1171: +4.5 c411 +4.5 c413 +4.5 c414 +4.5 c415 -1 c867 +1 c896 <= +4.5
 r1172: +4.5 c6 +4.5 c8 +4.5 c9 +4.5 c10 -1 c868 +1 c897 <= +4.5
 r1173: -1 c2 +1 c839 +1 c869 = +0.2375
 r1174: +1 c840 -1 c869 +1 c870 = +0.3125
 r1175: +1 c841 -1 c870 +1 c871 = +0.6625
 r1176: +1 c842 -1 c871 +1 c872 = +0.6625
 r1177: +1 c843 -1 c872 +1 c873 = +0.3875
 r1178: +1 c844 -1 c873 +1 c874 = +0.425
 r1179: +1 c845 -1 c874 +1 c875 = +0.6625
 r1180: +1 c846 -1 c875 +1 c876 = +0.325
 r1181: +1 c847 -1 c876 +1 c877 = +0.425
 r1182: +1 c848 -1 c877 +1 c878 = +0.025
 r1183: +1 c849 -1 c878 +1 c879 = +0.1875
 r1184: +1 c850 -1 c879 +1 c880 = +0.3375
 r1185: +1 c851 -1 c880 +1 c881 = +0.75
 r1186: +1 c852 -1 c881 +1 c882 = +0.05
 r1187: +1 c853 -1 c882 +1 c883 = +0.2
 r1188: +1 c854 -1 c883 +1 c884 = +0.5
 r1189: +1 c855 -1 c884 +1 c885 = +0.4
 r1190: +1 c856 -1 c885 +1 c886 = +0.5
 r1191: +1 c857 -1 c886 +1 c887 = +0.6625
 r1192: +1 c858 -1 c887 +1 c888 = +0.5
 r1193: +1 c859 -1 c888 +1 c889 = +0.4625
 r1194: +1 c860 -1 c889 +1 c890 = +0.5
 r1195: +1 c861 -1 c890 +1 c891 = +0.6
 r1196: +1 c862 -1 c891 +1 c892 = +0.525
 r1197: +1 c863 -1 c892 +1 c893 = +0.4
 r1198: +1 c864 -1 c893 +1 c894 = +0.775
 r1199: +1 c865 -1 c894 +1 c895 = +0.2375
 r1200: +1 c866 -1 c895 +1 c896 = +0.475
 r1201: +1 c867 -1 c896 +1 c897 = +0.5125
 r1202: +1 c2 <= +4.5
 r1203: +1 c869 <= +4.5
 r1204: +1 c870 <= +4.5
 r1205: +1 c871 <= +4.5
 r1206: +1 c872 <= +4.5
 r1207: +1 c873 <= +4.5
 r1208: +1 c874 <= +4.5
 r1209: +1 c875 <= +4.5
 r1210: +1 c876 <= +4.5
 r1211: +1 c877 <= +4.5
 r1212: +1 c878 <= +4.5
 r1213: +1 c879 <= +4.5
 r1214: +1 c880 <= +4.5
 r1215: +1 c881 <= +4.5
 r1216: +1 c882 <= +4.5
 r1217: +1 c883 <= +4.5
 r1218: +1 c884 <= +4.5
 r1219: +1 c885 <= +4.5
 r1220: +1 c886 <= +4.5
 r1221: +1 c887 <= +4.5
 r1222: +1 c888 <= +4.5
 r1223: +1 c889 <= +4.5
 r1224: +1 c890 <= +4.5
 r1225: +1 c891 <= +4.5
 r1226: +1 c892 <= +4.5
 r1227: +1 c893 <= +4.5
 r1228: +1 c894 <= +4.5
 r1229: +1 c895 <= +4.5
 r1230: +1 c896 <= +4.5
 r1231: +1 c897 <= +4.5
 r1232: -10 c274 -10 c275 +1 c898 <= +0
 r1233: -10 c279 -10 c280 +1 c899 <= +0
 r1234: -10 c284 -10 c285 +1 c900 <= +0
 r1235: -10 c289 -10 c290 +1 c901 <= +0
 r1236: -10 c294 -10 c295 +1 c902 <= +0
 r1237: -10 c299 -10 c300 +1 c903 <= +0
 r1238: -10 c304 -10 c305 +1 c904 <= +0
 r1239: -10 c309 -10 c310 +1 c905 <= +0
 r1240: -10 c314 -10 c315 +1 c906 <= +0
 r1241: -10 c319 -10 c320 +1 c907 <= +0
 r1242: -10 c324 -10 c325 +1 c908 <= +0
 r1243: -10 c329 -10 c330 +1 c909 <= +0
 r1244: -10 c334 -10 c335 +1 c910 <= +0
 r1245: -10 c339 -10 c340 +1 c911 <= +0
 r1246: -10 c344 -10 c345 +1 c912 <= +0
 r1247: -10 c349 -10 c350 +1 c913 <= +0
 r1248: -10 c354 -10 c355 +1 c914 <= +0
 r1249: -10 c359 -10 c360 +1 c915 <= +0
 r1250: -10 c364 -10 c365 +1 c916 <= +0
 r1251: -10 c369 -10 c370 +1 c917 <= +0
 r1252: -10 c374 -10 c375 +1 c918 <= +0
 r1253: -10 c379 -10 c380 +1 c919 <= +0
 r1254: -10 c384 -10 c385 +1 c920 <= +0
 r1255: -10 c389 -10 c390 +1 c921 <= +0
 r1256: -10 c394 -10 c395 +1 c922 <= +0
 r1257: -10 c399 -10 c400 +1 c923 <= +0
 r1258: -10 c404 -10 c405 +1 c924 <= +0
 r1259: -10 c409 -10 c410 +1 c925 <= +0
 r1260: -10 c414 -10 c415 +1 c926 <= +0
 r1261: -10 c9 -10 c10 +1 c927 <= +0
 r1262: -1 c3 +1 c898 <= +0
 r1263: +1 c899 -1 c928 <= +0
 r1264: +1 c900 -1 c929 <= +0
 r1265: +1 c901 -1 c930 <= +0
 r1266: +1 c902 -1 c931 <= +0
 r1267: +1 c903 -1 c932 <= +0
 r1268: +1 c904 -1 c933 <= +0
 r1269: +1 c905 -1 c934 <= +0
 r1270: +1 c906 -1 c935 <= +0
 r1271: +1 c907 -1 c936 <= +0
 r1272: +1 c908 -1 c937 <= +0
 r1273: +1 c909 -1 c938 <= +0
 r1274: +1 c910 -1 c939 <= +0
 r1275: +1 c911 -1 c940 <= +0
 r1276: +1 c912 -1 c941 <= +0
 r1277: +1 c913 -1 c942 <= +0
 r1278: +1 c914 -1 c943 <= +0
 r1279: +1 c915 -1 c944 <= +0
 r1280: +1 c916 -1 c945 <= +0
 r1281: +1 c917 -1 c946 <= +0
 r1282: +1 c918 -1 c947 <= +0
 r1283: +1 c919 -1 c948 <= +0
 r1284: +1 c920 -1 c949 <= +0
 r1285: +1 c921 -1 c950 <= +0
 r1286: +1 c922 -1 c951 <= +0
 r1287: +1 c923 -1 c952 <= +0
 r1288: +1 c924 -1 c953 <= +0
 r1289: +1 c925 -1 c954 <= +0
 r1290: +1 c926 -1 c955 <= +0
 r1291: +1 c927 -1 c956 <= +0
 r1292: +1 c3 +10 c274 +10 c275 -1 c898 <= +10
 r1293: +10 c279 +10 c280 -1 c899 +1 c928 <= +10
 r1294: +10 c284 +10 c285 -1 c900 +1 c929 <= +10
 r1295: +10 c289 +10 c290 -1 c901 +1 c930 <= +10
 r1296: +10 c294 +10 c295 -1 c902 +1 c931 <= +10
 r1297: +10 c299 +10 c300 -1 c903 +1 c932 <= +10
 r1298: +10 c304 +10 c305 -1 c904 +1 c933 <= +10
 r1299: +10 c309 +10 c310 -1 c905 +1 c934 <= +10
 r1300: +10 c314 +10 c315 -1 c906 +1 c935 <= +10
 r1301: +10 c319 +10 c320 -1 c907 +1 c936 <= +10
 r1302: +10 c324 +10 c325 -1 c908 +1 c937 <= +10
 r1303: +10 c329 +10 c330 -1 c909 +1 c938 <= +10
 r1304: +10 c334 +10 c335 -1 c910 +1 c939 <= +10
 r1305: +10 c339 +10 c340 -1 c911 +1 c940 <= +10
 r1306: +10 c344 +10 c345 -1 c912 +1 c941 <= +10
 r1307: +10 c349 +10 c350 -1 c913 +1 c942 <= +10
 r1308: +10 c354 +10 c355 -1 c914 +1 c943 <= +10
 r1309: +10 c359 +10 c360 -1 c915 +1 c944 <= +10
 r1310: +10 c364 +10 c365 -1 c916 +1 c945 <= +10
 r1311: +10 c369 +10 c370 -1 c917 +1 c946 <= +10
 r1312: +10 c374 +10 c375 -1 c918 +1 c947 <= +10
 r1313: +10 c379 +10 c380 -1 c919 +1 c948 <= +10
 r1314: +10 c384 +10 c385 -1 c920 +1 c949 <= +10
 r1315: +10 c389 +10 c390 -1 c921 +1 c950 <= +10
 r1316: +10 c394 +10 c395 -1 c922 +1 c951 <= +10
 r1317: +10 c399 +10 c400 -1 c923 +1 c952 <= +10
 r1318: +10 c404 +10 c405 -1 c924 +1 c953 <= +10
 r1319: +10 c409 +10 c410 -1 c925 +1 c954 <= +10
 r1320: +10 c414 +10 c415 -1 c926 +1 c955 <= +10
 r1321: +10 c9 +10 c10 -1 c927 +1 c956 <= +10
 r1322: -1 c3 +1 c898 +1 c928 = +0.2375
 r1323: +1 c899 -1 c928 +1 c929 = +0.3125
 r1324: +1 c900 -1 c929 +1 c930 = +0.6625
 r1325: +1 c901 -1 c930 +1 c931 = +0.6625
 r1326: +1 c902 -1 c931 +1 c932 = +0.3875
 r1327: +1 c903 -1 c932 +1 c933 = +0.425
 r1328: +1 c904 -1 c933 +1 c934 = +0.6625
 r1329: +1 c905 -1 c934 +1 c935 = +0.325
 r1330: +1 c906 -1 c935 +1 c936 = +0.425
 r1331: +1 c907 -1 c936 +1 c937 = +0.025
 r1332: +1 c908 -1 c937 +1 c938 = +0.1875
 r1333: +1 c909 -1 c938 +1 c939 = +0.3375
 r1334: +1 c910 -1 c939 +1 c940 = +0.75
 r1335: +1 c911 -1 c940 +1 c941 = +0.05
 r1336: +1 c912 -1 c941 +1 c942 = +0.2
 r1337: +1 c913 -1 c942 +1 c943 = +0.5
 r1338: +1 c914 -1 c943 +1 c944 = +0.4
 r1339: +1 c915 -1 c944 +1 c945 = +0.5
 r1340: +1 c916 -1 c945 +1 c946 = +0.6625
 r1341: +1 c917 -1 c946 +1 c947 = +0.5
 r1342: +1 c918 -1 c947 +1 c948 = +0.4625
 r1343: +1 c919 -1 c948 +1 c949 = +0.5
 r1344: +1 c920 -1 c949 +1 c950 = +0.6
 r1345: +1 c921 -1 c950 +1 c951 = +0.525
 r1346: +1 c922 -1 c951 +1 c952 = +0.4
 r1347: +1 c923 -1 c952 +1 c953 = +0.775
 r1348: +1 c924 -1 c953 +1 c954 = +0.2375
 r1349: +1 c925 -1 c954 +1 c955 = +0.475
 r1350: +1 c926 -1 c955 +1 c956 = +0.5125
 r1351: +1 c3 <= +9
 r1352: +1 c928 <= +9
 r1353: +1 c929 <= +9
 r1354: +1 c930 <= +9
 r1355: +1 c931 <= +9
 r1356: +1 c932 <= +9
 r1357: +1 c933 <= +9
 r1358: +1 c934 <= +9
 r1359: +1 c935 <= +9
 r1360: +1 c936 <= +9
 r1361: +1 c937 <= +9
 r1362: +1 c938 <= +9
 r1363: +1 c939 <= +9
 r1364: +1 c940 <= +9
 r1365: +1 c941 <= +9
 r1366: +1 c942 <= +9
 r1367: +1 c943 <= +9
 r1368: +1 c944 <= +9
 r1369: +1 c945 <= +9
 r1370: +1 c946 <= +9
 r1371: +1 c947 <= +9
 r1372: +1 c948 <= +9
 r1373: +1 c949 <= +9
 r1374: +1 c950 <= +9
 r1375: +1 c951 <= +9
 r1376: +1 c952 <= +9
 r1377: +1 c953 <= +9
 r1378: +1 c954 <= +9
 r1379: +1 c955 <= +9
 r1380: +1 c956 <= +9
 r1381: +2.5 c271 +2.5 c272 +2.5 c273 +2.5 c274 +2.5 c275 +1 c957 <= +2.5
 r1382: +2.5 c276 +2.5 c277 +2.5 c278 +2.5 c279 +2.5 c280 +1 c958 <= +2.5
 r1383: +2.5 c281 +2.5 c282 +2.5 c283 +2.5 c284 +2.5 c285 +1 c959 <= +2.5
 r1384: +2.5 c286 +2.5 c287 +2.5 c288 +2.5 c289 +2.5 c290 +1 c960 <= +2.5
 r1385: +2.5 c291 +2.5 c292 +2.5 c293 +2.5 c294 +2.5 c295 +1 c961 <= +2.5
 r1386: +2.5 c296 +2.5 c297 +2.5 c298 +2.5 c299 +2.5 c300 +1 c962 <= +2.5
 r1387: +2.5 c301 +2.5 c302 +2.5 c303 +2.5 c304 +2.5 c305 +1 c963 <= +2.5
 r1388: +2.5 c306 +2.5 c307 +2.5 c308 +2.5 c309 +2.5 c310 +1 c964 <= +2.5
 r1389: +2.5 c311 +2.5 c312 +2.5 c313 +2.5 c314 +2.5 c315 +1 c965 <= +2.5
 r1390: +2.5 c326 +2.5 c327 +2.5 c328 +2.5 c329 +2.5 c330 +1 c966 <= +2.5
 r1391: +2.5 c331 +2.5 c332 +2.5 c333 +2.5 c334 +2.5 c335 +1 c967 <= +2.5
 r1392: +2.5 c341 +2.5 c342 +2.5 c343 +2.5 c344 +2.5 c345 +1 c968 <= +2.5
 r1393: +2.5 c346 +2.5 c347 +2.5 c348 +2.5 c349 +2.5 c350 +1 c969 <= +2.5
 r1394: +2.5 c351 +2.5 c352 +2.5 c353 +2.5 c354 +2.5 c355 +1 c970 <= +2.5
 r1395: +2.5 c356 +2.5 c357 +2.5 c358 +2.5 c359 +2.5 c360 +1 c971 <= +2.5
 r1396: +2.5 c361 +2.5 c362 +2.5 c363 +2.5 c364 +2.5 c365 +1 c972 <= +2.5
 r1397: +2.5 c366 +2.5 c367 +2.5 c368 +2.5 c369 +2.5 c370 +1 c973 <= +2.5
 r1398: +2.5 c371 +2.5 c372 +2.5 c373 +2.5 c374 +2.5 c375 +1 c974 <= +2.5
 r1399: +2.5 c376 +2.5 c377 +2.5 c378 +2.5 c379 +2.5 c380 +1 c975 <= +2.5
 r1400: +2.5 c381 +2.5 c382 +2.5 c383 +2.5 c384 +2.5 c385 +1 c976 <= +2.5
 r1401: +2.5 c386 +2.5 c387 +2.5 c388 +2.5 c389 +2.5 c390 +1 c977 <= +2.5
 r1402: +2.5 c391 +2.5 c392 +2.5 c393 +2.5 c394 +2.5 c395 +1 c978 <= +2.5
 r1403: +2.5 c396 +2.5 c397 +2.5 c398 +2.5 c399 +2.5 c400 +1 c979 <= +2.5
 r1404: +2.5 c401 +2.5 c402 +2.5 c403 +2.5 c404 +2.5 c405 +1 c980 <= +2.5
 r1405: +2.5 c406 +2.5 c407 +2.5 c408 +2.5 c409 +2.5 c410 +1 c981 <= +2.5
 r1406: +2.5 c411 +2.5 c412 +2.5 c413 +2.5 c414 +2.5 c415 +1 c982 <= +2.5
 r1407: -1 c74 +1 c957 <= +0
 r1408: -1 c76 +1 c958 <= +0
 r1409: -1 c78 +1 c959 <= +0
 r1410: -1 c80 +1 c960 <= +0
 r1411: -1 c82 +1 c961 <= +0
 r1412: -1 c84 +1 c962 <= +0
 r1413: -1 c86 +1 c963 <= +0
 r1414: -1 c88 +1 c964 <= +0
 r1415: -1 c90 +1 c965 <= +0
 r1416: -1 c92 +1 c966 <= +0
 r1417: -1 c94 +1 c967 <= +0
 r1418: -1 c96 +1 c968 <= +0
 r1419: -1 c98 +1 c969 <= +0
 r1420: -1 c100 +1 c970 <= +0
 r1421: -1 c102 +1 c971 <= +0
 r1422: -1 c104 +1 c972 <= +0
 r1423: -1 c106 +1 c973 <= +0
 r1424: -1 c108 +1 c974 <= +0
 r1425: -1 c110 +1 c975 <= +0
 r1426: -1 c112 +1 c976 <= +0
 r1427: -1 c114 +1 c977 <= +0
 r1428: -1 c116 +1 c978 <= +0
 r1429: -1 c118 +1 c979 <= +0
 r1430: -1 c120 +1 c980 <= +0
 r1431: -1 c122 +1 c981 <= +0
 r1432: -1 c124 +1 c982 <= +0
 r1433: +1 c74 -2.5 c271 -2.5 c272 -2.5 c273 -2.5 c274 -2.5 c275 -1 c957 <= +0
 r1434: +1 c76 -2.5 c276 -2.5 c277 -2.5 c278 -2.5 c279 -2.5 c280 -1 c958 <= +0
 r1435: +1 c78 -2.5 c281 -2.5 c282 -2.5 c283 -2.5 c284 -2.5 c285 -1 c959 <= +0
 r1436: +1 c80 -2.5 c286 -2.5 c287 -2.5 c288 -2.5 c289 -2.5 c290 -1 c960 <= +0
 r1437: +1 c82 -2.5 c291 -2.5 c292 -2.5 c293 -2.5 c294 -2.5 c295 -1 c961 <= +0
 r1438: +1 c84 -2.5 c296 -2.5 c297 -2.5 c298 -2.5 c299 -2.5 c300 -1 c962 <= +0
 r1439: +1 c86 -2.5 c301 -2.5 c302 -2.5 c303 -2.5 c304 -2.5 c305 -1 c963 <= +0
 r1440: +1 c88 -2.5 c306 -2.5 c307 -2.5 c308 -2.5 c309 -2.5 c310 -1 c964 <= +0
 r1441: +1 c90 -2.5 c311 -2.5 c312 -2.5 c313 -2.5 c314 -2.5 c315 -1 c965 <= +0
 r1442: +1 c92 -2.5 c326 -2.5 c327 -2.5 c328 -2.5 c329 -2.5 c330 -1 c966 <= +0
 r1443: +1 c94 -2.5 c331 -2.5 c332 -2.5 c333 -2.5 c334 -2.5 c335 -1 c967 <= +0
 r1444: +1 c96 -2.5 c341 -2.5 c342 -2.5 c343 -2.5 c344 -2.5 c345 -1 c968 <= +0
 r1445: +1 c98 -2.5 c346 -2.5 c347 -2.5 c348 -2.5 c349 -2.5 c350 -1 c969 <= +0
 r1446: +1 c100 -2.5 c351 -2.5 c352 -2.5 c353 -2.5 c354 -2.5 c355 -1 c970 <= +0
 r1447: +1 c102 -2.5 c356 -2.5 c357 -2.5 c358 -2.5 c359 -2.5 c360 -1 c971 <= +0
 r1448: +1 c104 -2.5 c361 -2.5 c362 -2.5 c363 -2.5 c364 -2.5 c365 -1 c972 <= +0
 r1449: +1 c106 -2.5 c366 -2.5 c367 -2.5 c368 -2.5 c369 -2.5 c370 -1 c973 <= +0
 r1450: +1 c108 -2.5 c371 -2.5 c372 -2.5 c373 -2.5 c374 -2.5 c375 -1 c974 <= +0
 r1451: +1 c110 -2.5 c376 -2.5 c377 -2.5 c378 -2.5 c379 -2.5 c380 -1 c975 <= +0
 r1452: +1 c112 -2.5 c381 -2.5 c382 -2.5 c383 -2.5 c384 -2.5 c385 -1 c976 <= +0
 r1453: +1 c114 -2.5 c386 -2.5 c387 -2.5 c388 -2.5 c389 -2.5 c390 -1 c977 <= +0
 r1454: +1 c116 -2.5 c391 -2.5 c392 -2.5 c393 -2.5 c394 -2.5 c395 -1 c978 <= +0
 r1455: +1 c118 -2.5 c396 -2.5 c397 -2.5 c398 -2.5 c399 -2.5 c400 -1 c979 <= +0
 r1456: +1 c120 -2.5 c401 -2.5 c402 -2.5 c403 -2.5 c404 -2.5 c405 -1 c980 <= +0
 r1457: +1 c122 -2.5 c406 -2.5 c407 -2.5 c408 -2.5 c409 -2.5 c410 -1 c981 <= +0
 r1458: +1 c124 -2.5 c411 -2.5 c412 -2.5 c413 -2.5 c414 -2.5 c415 -1 c982 <= +0
 r1459: -13 c274 -13 c275 +1 c983 <= +0
 r1460: -13 c279 -13 c280 +1 c984 <= +0
 r1461: -13 c284 -13 c285 +1 c985 <= +0
 r1462: -13 c289 -13 c290 +1 c986 <= +0
 r1463: -13 c294 -13 c295 +1 c987 <= +0
 r1464: -13 c299 -13 c300 +1 c988 <= +0
 r1465: -13 c304 -13 c305 +1 c989 <= +0
 r1466: -13 c309 -13 c310 +1 c990 <= +0
 r1467: -13 c314 -13 c315 +1 c991 <= +0
 r1468: -13 c319 -13 c320 +1 c992 <= +0
 r1469: -13 c324 -13 c325 +1 c993 <= +0
 r1470: -13 c329 -13 c330 +1 c994 <= +0
 r1471: -13 c334 -13 c335 +1 c995 <= +0
 r1472: -13 c339 -13 c340 +1 c996 <= +0
 r1473: -13 c344 -13 c345 +1 c997 <= +0
 r1474: -13 c349 -13 c350 +1 c998 <= +0
 r1475: -13 c354 -13 c355 +1 c999 <= +0
 r1476: -13 c359 -13 c360 +1 c1000 <= +0
 r1477: -13 c364 -13 c365 +1 c1001 <= +0
 r1478: -13 c369 -13 c370 +1 c1002 <= +0
 r1479: -13 c374 -13 c375 +1 c1003 <= +0
 r1480: -13 c379 -13 c380 +1 c1004 <= +0
 r1481: -13 c384 -13 c385 +1 c1005 <= +0
 r1482: -13 c389 -13 c390 +1 c1006 <= +0
 r1483: -13 c394 -13 c395 +1 c1007 <= +0
 r1484: -13 c399 -13 c400 +1 c1008 <= +0
 r1485: -13 c404 -13 c405 +1 c1009 <= +0
 r1486: -13 c409 -13 c410 +1 c1010 <= +0
 r1487: -13 c414 -13 c415 +1 c1011 <= +0
 r1488: -13 c9 -13 c10 +1 c1012 <= +0
 r1489: -1 c5 +1 c983 <= +0
 r1490: +1 c984 -1 c1013 <= +0
 r1491: +1 c985 -1 c1014 <= +0
 r1492: +1 c986 -1 c1015 <= +0
 r1493: +1 c987 -1 c1016 <= +0
 r1494: +1 c988 -1 c1017 <= +0
 r1495: +1 c989 -1 c1018 <= +0
 r1496: +1 c990 -1 c1019 <= +0
 r1497: +1 c991 -1 c1020 <= +0
 r1498: +1 c992 -1 c1021 <= +0
 r1499: +1 c993 -1 c1022 <= +0
 r1500: +1 c994 -1 c1023 <= +0
 r1501: +1 c995 -1 c1024 <= +0
 r1502: +1 c996 -1 c1025 <= +0
 r1503: +1 c997 -1 c1026 <= +0
 r1504: +1 c998 -1 c1027 <= +0
 r1505: +1 c999 -1 c1028 <= +0
 r1506: +1 c1000 -1 c1029 <= +0
 r1507: +1 c1001 -1 c1030 <= +0
 r1508: +1 c1002 -1 c1031 <= +0
 r1509: +1 c1003 -1 c1032 <= +0
 r1510: +1 c1004 -1 c1033 <= +0
 r1511: +1 c1005 -1 c1034 <= +0
 r1512: +1 c1006 -1 c1035 <= +0
 r1513: +1 c1007 -1 c1036 <= +0
 r1514: +1 c1008 -1 c1037 <= +0
 r1515: +1 c1009 -1 c1038 <= +0
 r1516: +1 c1010 -1 c1039 <= +0
 r1517: +1 c1011 -1 c1040 <= +0
 r1518: +1 c1012 -1 c1041 <= +0
 r1519: +1 c5 +13 c274 +13 c275 -1 c983 <= +13
 r1520: +13 c279 +13 c280 -1 c984 +1 c1013 <= +13
 r1521: +13 c284 +13 c285 -1 c985 +1 c1014 <= +13
 r1522: +13 c289 +13 c290 -1 c986 +1 c1015 <= +13
 r1523: +13 c294 +13 c295 -1 c987 +1 c1016 <= +13
 r1524: +13 c299 +13 c300 -1 c988 +1 c1017 <= +13
 r1525: +13 c304 +13 c305 -1 c989 +1 c1018 <= +13
 r1526: +13 c309 +13 c310 -1 c990 +1 c1019 <= +13
 r1527: +13 c314 +13 c315 -1 c991 +1 c1020 <= +13
 r1528: +13 c319 +13 c320 -1 c992 +1 c1021 <= +13
 r1529: +13 c324 +13 c325 -1 c993 +1 c1022 <= +13
 r1530: +13 c329 +13 c330 -1 c994 +1 c1023 <= +13
 r1531: +13 c334 +13 c335 -1 c995 +1 c1024 <= +13
 r1532: +13 c339 +13 c340 -1 c996 +1 c1025 <= +13
 r1533: +13 c344 +13 c345 -1 c997 +1 c1026 <= +13
 r1534: +13 c349 +13 c350 -1 c998 +1 c1027 <= +13
 r1535: +13 c354 +13 c355 -1 c999 +1 c1028 <= +13
 r1536: +13 c359 +13 c360 -1 c1000 +1 c1029 <= +13
 r1537: +13 c364 +13 c365 -1 c1001 +1 c1030 <= +13
 r1538: +13 c369 +13 c370 -1 c1002 +1 c1031 <= +13
 r1539: +13 c374 +13 c375 -1 c1003 +1 c1032 <= +13
 r1540: +13 c379 +13 c380 -1 c1004 +1 c1033 <= +13
 r1541: +13 c384 +13 c385 -1 c1005 +1 c1034 <= +13
 r1542: +13 c389 +13 c390 -1 c1006 +1 c1035 <= +13
 r1543: +13 c394 +13 c395 -1 c1007 +1 c1036 <= +13
 r1544: +13 c399 +13 c400 -1 c1008 +1 c1037 <= +13
 r1545: +13 c404 +13 c405 -1 c1009 +1 c1038 <= +13
 r1546: +13 c409 +13 c410 -1 c1010 +1 c1039 <= +13
 r1547: +13 c414 +13 c415 -1 c1011 +1 c1040 <= +13
 r1548: +13 c9 +13 c10 -1 c1012 +1 c1041 <= +13
 r1549: -1 c5 -0.25 c195 -1 c958 +1 c983 +1 c1013 = +0.2375
 r1550: -0.133333333333333 c79 -0.25 c198 -1 c959 +1 c984 -1 c1013 +1 c1014 = +0.3125
 r1551: -0.1 c81 -0.25 c201 -1 c960 +1 c985 -1 c1014 +1 c1015 = +0.6625
 r1552: -0.0833333333333333 c83 -0.25 c204 -1 c961 +1 c986 -1 c1015 +1 c1016 = +0.6625
 r1553: -0.1 c85 -0.25 c207 -1 c962 +1 c987 -1 c1016 +1 c1017 = +0.3875
 r1554: -0.15 c87 -0.25 c210 -1 c963 +1 c988 -1 c1017 +1 c1018 = +0.425
 r1555: -0.25 c213 -1 c964 +1 c989 -1 c1018 +1 c1019 = +0.6625
 r1556: -0.116666666666667 c91 -0.25 c216 -1 c965 +1 c990 -1 c1019 +1 c1020 = +0.325
 r1557: -0.25 c219 +1 c991 -1 c1020 +1 c1021 = +0.925
 r1558: -0.25 c185 +1 c992 -1 c1021 +1 c1022 = +0.525
 r1559: -0.25 c188 -1 c966 +1 c993 -1 c1022 +1 c1023 = +0.1875
 r1560: -0.0333333333333333 c95 -0.25 c222 -1 c967 +1 c994 -1 c1023 +1 c1024 = +0.3375
 r1561: -0.25 c225 +1 c995 -1 c1024 +1 c1025 = +1.25
 r1562: -0.15 c97 -0.25 c191 -1 c968 +1 c996 -1 c1025 +1 c1026 = +0.05
 r1563: -0.05 c99 -0.25 c228 -1 c969 +1 c997 -1 c1026 +1 c1027 = +0.2
 r1564: -0.0166666666666667 c101 -0.25 c231 -1 c970 +1 c998 -1 c1027 +1 c1028 = +0.5
 r1565: -0.05 c103 -0.25 c234 -1 c971 +1 c999 -1 c1028 +1 c1029 = +0.4
 r1566: -0.116666666666667 c105 -0.25 c237 -1 c972 +1 c1000 -1 c1029 +1 c1030 = +0.5
 r1567: -0.0833333333333333 c107 -0.25 c240 -1 c973 +1 c1001 -1 c1030 +1 c1031 = +0.6625
 r1568: -0.133333333333333 c109 -0.25 c243 -1 c974 +1 c1002 -1 c1031 +1 c1032 = +0.5
 r1569: -0.0833333333333333 c111 -0.25 c246 -1 c975 +1 c1003 -1 c1032 +1 c1033 = +0.4625
 r1570: -0.133333333333333 c113 -0.25 c249 -1 c976 +1 c1004 -1 c1033 +1 c1034 = +0.5
 r1571: -0.0666666666666667 c115 -0.25 c252 -1 c977 +1 c1005 -1 c1034 +1 c1035 = +0.6
 r1572: -0.116666666666667 c117 -0.25 c255 -1 c978 +1 c1006 -1 c1035 +1 c1036 = +0.525
 r1573: -0.0166666666666667 c119 -0.25 c258 -1 c979 +1 c1007 -1 c1036 +1 c1037 = +0.4
 r1574: -0.15 c121 -0.25 c261 -1 c980 +1 c1008 -1 c1037 +1 c1038 = +0.775
 r1575: -0.0833333333333333 c123 -0.25 c264 -1 c981 +1 c1009 -1 c1038 +1 c1039 = +0.2375
 r1576: -0.0666666666666667 c125 -0.25 c267 -1 c982 +1 c1010 -1 c1039 +1 c1040 = +0.475
 r1577: -0.25 c270 +1 c1011 -1 c1040 +1 c1041 = +1.0125
 r1578: +1 c5 <= +13
 r1579: +1 c1013 <= +13
 r1580: +1 c1014 <= +13
 r1581: +1 c1015 <= +13
 r1582: +1 c1016 <= +13
 r1583: +1 c1017 <= +13
 r1584: +1 c1018 <= +13
 r1585: +1 c1019 <= +13
 r1586: +1 c1020 <= +13
 r1587: +1 c1021 <= +13
 r1588: +1 c1022 <= +13
 r1589: +1 c1023 <= +13
 r1590: +1 c1024 <= +13
 r1591: +1 c1025 <= +13
 r1592: +1 c1026 <= +13
 r1593: +1 c1027 <= +13
 r1594: +1 c1028 <= +13
 r1595: +1 c1029 <= +13
 r1596: +1 c1030 <= +13
 r1597: +1 c1031 <= +13
 r1598: +1 c1032 <= +13
 r1599: +1 c1033 <= +13
 r1600: +1 c1034 <= +13
 r1601: +1 c1035 <= +13
 r1602: +1 c1036 <= +13
 r1603: +1 c1037 <= +13
 r1604: +1 c1038 <= +13
 r1605: +1 c1039 <= +13
 r1606: +1 c1040 <= +13
 r1607: +1 c1041 <= +13
bounds
 c4 <= 1
 c6 <= 1
 c7 <= 1
 c8 <= 1
 c9 <= 1
 c10 <= 1
 c75 <= 1
 c77 <= 1
 c79 <= 1
 c81 <= 1
 c83 <= 1
 c85 <= 1
 c87 <= 1
 c89 <= 1
 c91 <= 1
 c93 <= 1
 c95 <= 1
 c97 <= 1
 c99 <= 1
 c101 <= 1
 c103 <= 1
 c105 <= 1
 c107 <= 1
 c109 <= 1
 c111 <= 1
 c113 <= 1
 c115 <= 1
 c117 <= 1
 c119 <= 1
 c121 <= 1
 c123 <= 1
 c125 <= 1
 c185 <= 1
 c188 <= 1
 c191 <= 1
 c192 <= 1
 c195 <= 1
 c198 <= 1
 c201 <= 1
 c204 <= 1
 c207 <= 1
 c210 <= 1
 c213 <= 1
 c216 <= 1
 c219 <= 1
 c222 <= 1
 c225 <= 1
 c228 <= 1
 c231 <= 1
 c234 <= 1
 c237 <= 1
 c240 <= 1
 c243 <= 1
 c246 <= 1
 c249 <= 1
 c252 <= 1
 c255 <= 1
 c258 <= 1
 c261 <= 1
 c264 <= 1
 c267 <= 1
 c270 <= 1
 c271 <= 1
 c272 <= 1
 c273 <= 1
 c274 <= 1
 c275 <= 1
 c276 <= 1
 c277 <= 1
 c278 <= 1
 c279 <= 1
 c280 <= 1
 c281 <= 1
 c282 <= 1
 c283 <= 1
 c284 <= 1
 c285 <= 1
 c286 <= 1
 c287 <= 1
 c288 <= 1
 c289 <= 1
 c290 <= 1
 c291 <= 1
 c292 <= 1
 c293 <= 1
 c294 <= 1
 c295 <= 1
 c296 <= 1
 c297 <= 1
 c298 <= 1
 c299 <= 1
 c300 <= 1
 c301 <= 1
 c302 <= 1
 c303 <= 1
 c304 <= 1
 c305 <= 1
 c306 <= 1
 c307 <= 1
 c308 <= 1
 c309 <= 1
 c310 <= 1
 c311 <= 1
 c312 <= 1
 c313 <= 1
 c314 <= 1
 c315 <= 1
 c316 <= 1
 c317 <= 1
 c318 <= 1
 c319 <= 1
 c320 <= 1
 c321 <= 1
 c322 <= 1
 c323 <= 1
 c324 <= 1
 c325 <= 1
 c326 <= 1
 c327 <= 1
 c328 <= 1
 c329 <= 1
 c330 <= 1
 c331 <= 1
 c332 <= 1
 c333 <= 1
 c334 <= 1
 c335 <= 1
 c336 <= 1
 c337 <= 1
 c338 <= 1
 c339 <= 1
 c340 <= 1
 c341 <= 1
 c342 <= 1
 c343 <= 1
 c344 <= 1
 c345 <= 1
 c346 <= 1
 c347 <= 1
 c348 <= 1
 c349 <= 1
 c350 <= 1
 c351 <= 1
 c352 <= 1
 c353 <= 1
 c354 <= 1
 c355 <= 1
 c356 <= 1
 c357 <= 1
 c358 <= 1
 c359 <= 1
 c360 <= 1
 c361 <= 1
 c362 <= 1
 c363 <= 1
 c364 <= 1
 c365 <= 1
 c366 <= 1
 c367 <= 1
 c368 <= 1
 c369 <= 1
 c370 <= 1
 c371 <= 1
 c372 <= 1
 c373 <= 1
 c374 <= 1
 c375 <= 1
 c376 <= 1
 c377 <= 1
 c378 <= 1
 c379 <= 1
 c380 <= 1
 c381 <= 1
 c382 <= 1
 c383 <= 1
 c384 <= 1
 c385 <= 1
 c386 <= 1
 c387 <= 1
 c388 <= 1
 c389 <= 1
 c390 <= 1
 c391 <= 1
 c392 <= 1
 c393 <= 1
 c394 <= 1
 c395 <= 1
 c396 <= 1
 c397 <= 1
 c398 <= 1
 c399 <= 1
 c400 <= 1
 c401 <= 1
 c402 <= 1
 c403 <= 1
 c404 <= 1
 c405 <= 1
 c406 <= 1
 c407 <= 1
 c408 <= 1
 c409 <= 1
 c410 <= 1
 c411 <= 1
 c412 <= 1
 c413 <= 1
 c414 <= 1
 c415 <= 1
 c624 <= 1
 c625 <= 1
 c626 <= 1
 c627 <= 1
 c628 <= 1
 c629 <= 1
 c630 <= 1
 c631 <= 1
 c632 <= 1
 c633 <= 1
 c634 <= 1
 c635 <= 1
 c636 <= 1
 c637 <= 1
 c638 <= 1
 c639 <= 1
 c640 <= 1
 c641 <= 1
 c642 <= 1
 c643 <= 1
 c644 <= 1
 c645 <= 1
 c646 <= 1
 c647 <= 1
 c648 <= 1
 c649 <= 1
 c650 <= 1
 c651 <= 1
 c652 <= 1
 c653 <= 1
 c654 <= 1
 c655 <= 1
 c656 <= 1
 c657 <= 1
 c658 <= 1
 c659 <= 1
 c660 <= 1
 c661 <= 1
 c662 <= 1
 c663 <= 1
 c664 <= 1
 c665 <= 1
 c666 <= 1
 c667 <= 1
 c668 <= 1
 c669 <= 1
 c670 <= 1
 c671 <= 1
 c672 <= 1
 c673 <= 1
 c674 <= 1
 c675 <= 1
 c676 <= 1
 c677 <= 1
 c678 <= 1
 c679 <= 1
 c680 <= 1
 c681 <= 1
 c682 <= 1
 c683 <= 1
 c684 <= 1
 c685 <= 1
 c686 <= 1
 c687 <= 1
 c688 <= 1
 c689 <= 1
 c690 <= 1
 c691 <= 1
 c692 <= 1
 c693 <= 1
 c694 <= 1
 c695 <= 1
 c696 <= 1
 c697 <= 1
 c698 <= 1
 c699 <= 1
 c700 <= 1
 c701 <= 1
 c702 <= 1
 c703 <= 1
 c704 <= 1
 c705 <= 1
 c706 <= 1
 c707 <= 1
 c708 <= 1
 c709 <= 1
 c710 <= 1
 c711 <= 1
 c712 <= 1
 c713 <= 1
 c714 <= 1
 c715 <= 1
 c716 <= 1
 c717 <= 1
 c718 <= 1
 c719 <= 1
 c720 <= 1
 c721 <= 1
 c722 <= 1
 c723 <= 1
 c724 <= 1
 c725 <= 1
 c726 <= 1
 c727 <= 1
 c728 <= 1
 c729 <= 1
 c730 <= 1
 c731 <= 1
 c732 <= 1
 c733 <= 1
 c734 <= 1
 c735 <= 1
 c736 <= 1
 c737 <= 1
 c738 <= 1
 c739 <= 1
 c740 <= 1
 c741 <= 1
 c742 <= 1
 c743 <= 1
 c744 <= 1
 c745 <= 1
 c746 <= 1
 c747 <= 1
 c748 <= 1
 c749 <= 1
 c750 <= 1
 c751 <= 1
 c752 <= 1
 c753 <= 1
 c754 <= 1
 c755 <= 1
 c756 <= 1
 c757 <= 1
 c758 <= 1
 c759 <= 1
 c760 <= 1
 c761 <= 1
 c762 <= 1
 c763 <= 1
 c764 <= 1
 c765 <= 1
 c766 <= 1
 c767 <= 1
 c768 <= 1
 c769 <= 1
 c770 <= 1
 c771 <= 1
 c772 <= 1
 c773 <= 1
 c774 <= 1
 c775 <= 1
 c776 <= 1
 c777 <= 1
 c778 <= 1
 c779 <= 1
 c810 <= 1
 c811 <= 1
 c812 <= 1
 c813 <= 1
 c814 <= 1
 c815 <= 1
 c816 <= 1
 c817 <= 1
 c818 <= 1
 c819 <= 1
 c820 <= 1
 c821 <= 1
 c822 <= 1
 c823 <= 1
 c824 <= 1
 c825 <= 1
 c826 <= 1
 c827 <= 1
 c828 <= 1
 c829 <= 1
 c830 <= 1
 c831 <= 1
 c832 <= 1
 c833 <= 1
 c834 <= 1
 c835 <= 1
 c836 <= 1
 c837 <= 1
 c838 <= 1
end
